POSCAR file written by OVITO Basic 3.5.4
1
17.520744 0.0 0.0
0.0 17.520744 0.0
0.0 0.0 42.048
W Nb Hf Zr 
50 50 50 50 
Direct
0.5914606 -0.03400107 0.02866702
0.24622731 1.00313622 0.1497699
0.75289441 -0.09491287 0.0637917
0.01341878 0.33042025 0.23070971
0.47360903 0.17508991 0.15850077
0.17065048 0.26554067 0.145761
0.77834303 0.30345569 0.05951536
0.35646266 1.00479548 0.25353262
0.88887234 0.79951246 0.2684982
0.38468765 0.8228167 0.31992447
0.65257712 0.61052466 0.16678223
0.51686314 0.05515122 0.28295701
1.05114651 0.41997967 0.06365406
0.5074248 0.42151824 0.11375372
0.52227608 0.497976 0.06752021
0.59050362 0.86516244 -0.00923043
0.97479079 0.14314139 0.12838987
0.63852755 0.15481866 0.14722379
0.79036528 0.91760632 0.17418176
1.03682008 0.29090328 0.04213744
1.00480427 0.80153978 0.09457622
0.72446446 0.73132066 0.18753471
0.9195043 0.57087872 0.29184518
0.28563364 0.35664912 0.16138811
0.06592558 0.9160611 0.0298753
0.88890122 0.93477314 0.11842241
0.10814502 0.09704991 0.1393157
0.37117178 0.11010783 0.11079214
-0.00697333 0.72708031 0.21053645
0.99471254 0.24812392 0.27682288
6.3895e-04 0.66994927 0.26751642
-0.04481565 0.82722195 0.1579539
0.67860015 1.02771387 0.1837564
0.63017423 0.00729096 0.24831486
0.8577693 0.74977526 0.20227132
0.6511774 0.57108957 0.09263752
0.92254887 0.38556486 0.08509441
0.33311121 0.83417028 0.06384429
0.76976231 0.19199974 0.01988797
0.30152567 0.51728697 0.27208261
0.24462736 0.68790855 0.10339736
0.27693027 0.07141348 0.21722823
0.03056161 0.09281542 0.28599118
0.05104102 0.82449253 0.26352017
0.71405291 0.06518128 0.06565786
0.61049848 -0.20720799 0.05008499
0.99507015 0.99367561 0.16412744
0.91793251 0.94642348 0.26910364
0.24248224 0.13743892 0.11366379
0.69183773 0.64264625 0.31474084
0.63607232 0.50058094 0.02782581
0.91116336 0.41297341 0.20322404
1.1567775 0.37506284 0.02960765
0.50609253 0.27031804 0.2369526
0.84941717 0.04725974 0.05759025
-0.11106696 0.82662207 0.05395925
0.73017138 1.0099573 0.12928145
0.21171978 0.66303945 0.15823609
0.18857094 0.38788836 0.1039259
0.68376375 0.5014014 0.2182967
0.52272115 0.59907871 0.1190985
0.16682109 1.10662652 0.25333636
0.088661 0.18774865 -0.00225804
0.5729961 0.30273455 0.12672775
1.05213523 0.55948012 0.03709167
0.3672886 0.92493488 0.11726642
0.39372021 0.17903508 0.04726713
0.37018203 0.28418708 0.29044926
0.16014555 0.69924461 0.23150609
0.07314079 0.11347506 0.07393473
0.43248591 0.68004657 0.34760236
0.69047134 0.76659558 0.2911803
0.67125944 0.33599026 0.02432236
0.17826162 0.78272061 0.07330685
0.60378866 0.65177336 0.03587927
0.62810548 0.44936404 0.16346908
0.74072325 0.17999999 0.22389399
0.51089785 0.86027108 0.12802236
0.31427287 0.71769512 0.20304815
0.57448298 0.12647322 0.19996176
0.79747322 0.14371075 0.11900753
0.48345159 0.20713311 0.09440059
0.25471628 0.12102018 0.03917263
1.08107991 0.95596957 0.24926001
-0.00216517 0.66170216 0.32951847
0.41592505 0.80534821 0.19647531
0.12886819 0.01095285 0.19566576
0.77502273 0.38233145 0.21818908
0.74490624 0.69789664 0.05720805
0.83329133 0.58341758 0.18527794
0.61915392 0.64537445 0.25395645
0.05456482 0.2063461 0.17862649
0.04488881 0.28382117 0.10651303
0.52140999 0.68923643 0.18268049
0.43743205 0.43830522 0.25827798
0.31599807 0.21716103 0.16476299
0.90678365 0.71522339 0.01403418
0.94721601 0.64477288 0.15405503
0.5493917 0.58324677 0.31434319
0.73754098 0.50601527 0.27929021
0.22785508 0.5275772 0.14399366
0.14897903 0.25949101 0.28780606
0.22090057 0.37769289 0.25060057
-0.05355546 0.28466855 0.32893536
0.38207283 1.0207054 0.17652032
0.20827818 0.87955412 0.0195732
0.33938375 0.27098191 0.10613174
0.34623765 0.2721085 0.22515646
0.24411968 0.82685588 0.14219774
0.84325542 0.70445474 0.3127698
0.4043564 0.9788621 0.31009673
0.78718399 0.45237435 0.13085082
0.61561105 0.91385974 0.09955122
0.61549991 0.31890502 0.19260242
0.7314243 0.29095628 0.13620093
-0.02323554 0.08857588 0.22486996
0.20919989 0.98602671 0.08760862
0.5171769 0.53616309 0.21532601
0.52810554 0.06356969 0.06027886
0.45981485 0.71349777 0.04895822
0.5277362 0.33444215 0.04589019
0.31838798 0.51367047 0.20269106
0.42817151 -0.00466393 -0.00208616
0.9172057 0.97811596 0.01076125
0.78323034 0.63895728 0.12894732
0.65734268 0.41515773 0.08569297
0.45321533 0.37055426 0.16682156
0.81320736 0.81385635 0.11386438
0.58762544 0.729972 0.35446257
0.14862375 0.49900172 0.22194192
0.328184 0.13465938 0.28600069
0.62855811 0.86754301 0.1710657
0.63363366 0.89120287 0.29379075
0.21777722 0.52029763 0.06790984
0.91054114 0.67851501 0.07710198
0.6691966 0.32461058 0.26163749
0.47371865 -0.12061935 0.05102747
0.66716792 0.11475741 0.00725554
0.38261697 0.59643301 0.07560036
0.43398411 0.6239426 0.2562243
0.78147096 0.66660388 0.24542655
0.51251246 0.74318124 0.29139788
0.89555698 0.19211509 0.07655863
0.24387186 0.96794969 0.28803383
0.4490658 0.55551793 0.01572737
0.31714699 0.68984152 0.28963437
-0.12798193 0.37749984 0.27386368
0.57328127 0.44790071 0.26822787
0.19812602 0.23183788 0.20176831
0.77193958 0.25053876 0.32447276
0.87416137 0.24289825 0.22194934
0.99103463 0.89503266 0.3206954
0.13145288 0.55988054 0.28329271
0.24914002 0.44016194 0.31961142
0.79928033 0.02872844 0.23362649
0.72136303 0.78383244 0.01222806
0.33744552 0.46211616 0.11461837
0.61015171 0.79783733 0.23307016
0.36243857 -0.01105002 0.05385213
0.10895508 -0.15763764 0.18770142
0.1735128 0.22599203 0.07162365
0.05663084 0.56423649 0.1712169
0.64936507 0.13261615 0.26995021
0.93054692 0.89185381 0.21336602
0.74143761 0.40632784 0.31433138
0.38995297 0.58180278 0.15446361
0.53992449 0.72515249 -0.00824079
-0.01577277 -0.02145119 0.07688548
0.44240104 0.11989677 0.2291904
0.75215799 0.88395175 0.2444837
0.09385859 0.38427165 0.17569017
0.51855657 0.22943235 0.29436219
0.74089496 0.02596235 0.30208944
0.88454518 0.51774337 0.06254712
0.61556524 0.73047322 0.11437964
0.84720894 0.09386223 0.17397688
-0.01408021 0.46296151 0.12883403
0.39923906 0.73881772 0.12865248
0.08960462 0.91767767 0.12799991
0.53310012 1.05981529 0.12916818
0.95198287 0.54323287 0.23417023
0.0806028 1.04356745 0.00426345
0.80456455 0.89761291 0.31116801
0.85585478 0.15000869 0.28034038
0.91695627 0.35277658 0.01744702
0.93813189 0.12385738 0.00727052
0.4146751 0.52542653 0.32774201
0.33151703 0.40000477 0.04701446
0.04488952 0.4300689 0.27640203
0.30840472 0.76692818 0.00913718
0.41006807 0.8421561 0.26710215
0.15424842 0.73914198 0.29374609
0.07029063 0.73307755 0.03916954
0.64412245 0.19337326 0.08017751
0.08480076 0.61014653 0.09665751
0.24494518 0.87426224 0.22535558
0.91131584 0.29663558 0.15205215
0.27917881 0.24222415 0.00969665
0.51860563 0.94968609 0.21745957
0.09679714 0.71596107 0.14490591
