POSCAR file written by OVITO Basic 3.5.4
1
17.670372 0.0 0.0
0.0 17.670372 0.0
0.0 0.0 42.408
W Nb Hf Zr 
50 50 50 50 
Direct
0.85599262 0.97064346 0.21796773
0.17281042 0.63645732 0.13483735
0.04197036 0.40448681 0.153783
0.88176888 0.84841567 0.26648873
0.51221341 0.55000341 0.04195959
0.64531976 0.4321925 0.15741627
0.0216558 0.43819878 0.08827223
0.1302112 0.90669399 0.2504814
0.96761811 0.06402694 0.3323059
0.23779172 0.56677467 0.32065376
0.38878065 0.56451637 0.2274965
0.62817889 0.65367883 0.05855032
0.42962387 0.91380829 0.12366272
0.19812858 0.2855998 0.32290047
0.48959884 0.77997077 0.32006805
0.64148867 0.35401374 0.25714639
0.34581107 0.16596448 0.08279169
0.69272518 0.28445438 0.17645999
0.98999381 0.52912712 0.04190142
0.636406 0.20161414 0.22173707
0.78400791 0.17813623 0.17372455
0.35721031 0.57053882 0.03625703
0.01584423 0.46273068 0.26860868
0.00903499 0.95436329 0.02747339
0.4099662 0.18818264 0.14991456
0.97482687 0.42346901 0.32071418
0.25968197 0.08931151 0.03248496
0.73108357 0.14363083 0.26523341
0.68242514 0.46088928 0.2152845
0.23208094 0.47242945 0.21583205
0.90668619 0.85668981 0.13242414
0.99410528 0.75161272 0.25721136
0.55396813 0.47425219 0.32310001
0.86616749 0.99111068 0.27434239
0.93697822 0.97388798 0.15631142
0.75341016 0.64846724 0.28950497
0.58128709 0.17583777 0.0891155
0.27455842 0.47321948 0.14556722
0.32708484 0.3181172 0.08201661
0.26099721 0.43756849 0.06924737
0.95345718 0.79891902 0.20609245
0.68443578 0.6210326 0.23666807
0.66444904 0.0953429 0.11665198
0.09834274 0.42908776 0.22553956
0.82231849 0.52369791 0.30995274
0.45057401 0.67497379 0.03254551
0.91480476 0.16320024 0.29337512
0.13339688 0.89430541 0.12279783
0.38525176 0.69844615 0.23783373
0.43256509 0.11394312 0.29997704
0.62214452 0.08127093 0.01342679
0.70239282 0.3758868 0.08919471
0.25160387 0.9265216 0.03654092
0.30995813 0.59780335 0.10159041
0.09565274 0.50853133 0.33139373
0.10745928 0.85538816 0.0444268
0.91408205 0.31381214 0.108171
0.94833446 0.31150571 0.28927518
0.8011626 0.87035733 0.18517752
0.98936188 0.75536901 0.32451762
0.66845387 0.53450274 0.08461668
0.907251 0.1870212 0.05433239
0.12861814 0.70516855 0.30759151
0.2690075 0.21081491 0.15691992
0.14213671 0.06392687 0.14184923
0.0354861 0.88739705 0.17019003
0.66591138 0.63221329 0.1267114
0.23972756 0.99286556 0.25568189
0.53840995 0.50080043 0.12335147
0.17974249 0.15953386 0.20797818
0.18679971 0.58108759 0.04879831
0.80550802 0.39802164 0.27478245
0.87402523 0.61144829 0.04597632
0.06678279 0.10671985 0.05248916
0.58494329 0.89380586 0.29281769
0.25732124 0.42967793 0.00864114
0.15419708 0.3722086 0.10995428
0.41999665 0.99151456 0.26328008
0.17325807 0.27864423 0.24471285
0.62809008 0.21446028 0.31134754
0.0275446 0.08535375 0.18108688
0.41278335 0.43893474 0.01911513
0.28419363 0.63621575 0.18221695
0.84898168 0.73078817 0.31282918
0.94502354 0.63951451 0.09688923
0.28362453 0.68174493 0.27715419
0.7963829 0.71094316 0.10408649
0.16817276 0.21879913 0.05030415
0.72609091 0.13369477 0.05675289
0.0331136 0.27369183 0.07477186
0.0862087 0.33082074 0.28959875
0.77566636 0.54414302 0.15571565
0.53190953 0.46607804 0.24700576
0.70696133 0.83764774 0.13828775
0.28701362 0.87432486 0.10601022
0.96303046 0.13380933 0.12888385
0.98662287 0.92964673 0.22795654
0.86404729 0.05701829 0.07823115
0.35865688 0.50221682 0.28805469
0.68644565 0.78243613 0.08568002
0.69903755 0.35118198 0.32536854
0.47315338 0.13203439 0.03842126
0.02948187 0.24559145 0.01570781
0.79519665 0.01911628 0.13200647
0.34091136 0.24995892 0.21329827
0.01275327 0.98382962 0.09466552
0.2583833 0.82651365 0.23250853
0.9616127 0.61183071 0.2220898
0.09386584 0.56361622 0.10320775
0.09079903 0.23311953 0.15341656
0.19227925 0.83647186 0.3089958
0.5351159 0.30514607 0.19143609
0.41395172 0.47192839 0.09175369
0.07292569 0.08250058 0.2489211
0.86687678 0.38280296 0.03729407
4.6849e-04 0.25650001 0.23636017
0.48014924 0.64189631 0.09168917
0.15477481 0.56583941 0.25924287
0.38481891 0.34251827 0.14030195
0.93945575 0.68059254 0.15749302
0.95566672 0.5331046 0.15228879
0.7205534 0.54331011 0.01634258
0.37794507 0.83702672 0.04157716
0.21182837 0.80312645 0.15968458
0.55910099 0.80556881 0.12350525
0.4207404 0.50546986 0.16567421
0.07246578 0.67714947 0.0422517
0.56350172 0.5710519 0.18985856
0.58407319 0.7161178 0.26083524
0.16290712 0.98685914 0.19452998
0.57663029 0.1425256 0.15691911
0.58660448 0.32909244 0.11100046
0.47250539 0.07733572 0.11097858
0.73826271 0.82249999 0.30530621
0.69772631 0.93579614 0.01273398
0.7851522 0.22665311 0.11605757
0.35292977 0.39279243 0.21334898
0.60019708 0.6547972 0.33329699
0.37477165 0.74997741 0.08926928
0.1197132 0.53246462 0.1702742
0.58495849 0.82741046 0.02925815
0.58820158 0.10355854 0.26887849
0.11416808 0.15516263 0.3078653
0.32272995 0.02896249 0.31326731
0.58222187 0.74103004 0.18917764
0.17484072 0.99198574 0.07760678
0.08611534 0.39098725 0.03588623
0.82717645 0.88840562 0.07837433
0.46927938 0.84847748 0.24625192
0.90918475 0.27203125 0.1730476
0.80758649 0.10194783 0.33198836
0.15041138 0.72602397 0.24359941
0.27365139 0.14889272 0.2753213
0.35280511 0.28138667 0.29959948
0.6765992 0.49807143 0.28653738
0.69407123 0.25758684 0.04224519
0.96462232 0.6137833 0.30524859
0.69381064 0.84109503 0.23797875
0.34360406 0.861606 0.29590645
0.51547855 0.97743022 0.01043458
0.26358673 0.72010946 0.02593113
0.90170532 0.13978828 0.22529213
0.58647585 0.4129163 0.04805984
0.85210931 0.93361497 0.00887672
0.92475349 0.41236573 0.22189779
0.75195664 0.74262065 0.0304799
0.79730517 0.72562879 0.24304607
0.31845519 0.08313119 0.20772774
0.81582272 0.54106879 0.24173987
0.60341907 0.9332701 0.15745233
0.32276806 0.24634694 0.02314125
0.79483896 0.70793742 0.17938922
0.70054048 0.04282606 0.2041478
0.04812968 0.76418853 0.10694125
0.45518285 0.01909741 0.1811057
0.17864189 0.16490236 0.10172524
0.80354595 0.26960579 0.23397801
0.19002789 0.74737436 0.08685399
0.23403087 0.43014377 0.27796401
0.20036323 0.33806813 0.17874399
0.65114665 0.96371353 0.08554616
0.4580363 0.86210018 0.18024582
0.3760981 0.00452056 0.06745951
0.53384227 0.31394073 0.3245911
0.45580751 0.61013931 0.30017199
0.92938733 0.78639239 0.0467023
0.43116477 0.71203172 0.16565997
0.31742188 0.91743368 0.19289405
0.51489675 0.2690028 0.25948817
0.27114463 0.01793528 0.13308939
0.85808963 0.49604961 0.09913795
0.47333458 0.12026723 0.22312283
0.80599242 0.37921658 0.17750309
0.45401573 0.27960289 0.06477463
0.07919598 0.72946286 0.18627749
0.71037358 0.98032629 0.27927197
0.81097448 0.26118785 0.31701142
0.57820535 0.95097834 0.22768261
0.14563918 0.0034343 0.31684442
0.00857127 0.9086147 0.29221664
