POSCAR file written by OVITO Basic 3.5.4
1
17.616934 0.0 0.0
0.0 17.616934 0.0
0.0 0.0 42.27
W Nb Hf Zr 
50 50 50 50 
Direct
0.64160285 0.88366995 0.10847997
0.10006981 0.15680474 0.13522824
0.80923543 0.94291471 0.06540004
0.01506622 0.459075 0.19051577
0.53313186 0.06914756 0.08151358
0.52688644 0.49299016 0.01974511
0.90969239 0.42624044 0.30053663
0.84778942 0.03052476 0.18905078
0.93927393 0.66523908 0.28764233
0.49641467 0.96701033 0.11762864
0.59687302 0.57185212 0.17624849
0.45668904 0.0104891 0.19423491
0.90866665 0.69947644 0.07618523
0.3818404 0.62197285 0.29549877
0.84512405 0.66601354 0.23600968
0.43637992 0.18513219 0.02403545
0.22110829 0.06578192 0.26770386
0.54333293 0.13900182 0.17888976
0.53708744 0.89109527 0.29429854
0.77205719 0.46920732 0.29154201
0.7569134 0.45084214 0.17160687
0.70765417 0.66198648 0.19430972
0.06673803 0.70818752 0.3007039
0.32196666 0.22673489 0.0379235
0.04157409 0.65790372 0.18028347
0.85618515 0.55142269 0.18630969
0.16280363 0.12352036 0.19763855
0.10863433 0.02617001 0.08630209
0.16106952 0.56580068 0.19258139
0.98200745 0.4207852 0.2474385
0.44072692 0.67044498 0.24136778
0.03250465 0.73892326 0.12369391
0.84978674 0.85212667 0.2405435
0.68792227 0.04072285 0.29215909
0.95604593 0.60321795 0.13260547
0.54090769 0.55137981 0.08481323
0.97016014 0.28928084 0.08220661
0.04339314 0.8763551 0.10388998
0.34552707 0.38673342 0.02394174
0.3051009 0.5101203 0.19157399
0.32375966 0.71814246 0.12221729
0.11595151 0.96013037 0.29394453
0.9634439 0.29317466 0.23726712
0.30173409 0.65048588 0.21612581
0.47601227 0.12005798 0.23628376
0.56631763 0.90335467 0.16827425
0.54885463 0.08731092 0.02348904
0.98784974 0.52069933 0.01646304
0.47073809 0.35122185 0.03883013
0.06639594 0.23946931 0.32693967
0.64180848 0.97510198 0.05162023
-0.01186874 0.42806723 0.13328398
0.895551 0.39477911 0.01992077
0.60360073 0.63032313 0.23945169
0.08527042 1.02455094 0.15947636
0.9373156 0.89919389 0.1791928
0.62303587 0.07623483 0.13350532
0.57438925 0.77685543 0.06871441
0.26651608 0.93466758 0.25665169
0.65065676 0.23523185 0.09416799
0.34503912 0.36638325 0.16089616
0.09502196 0.89637943 0.04189628
0.2774094 0.19364109 0.10516395
0.59034655 0.22871475 0.04871568
0.97888136 0.78684269 0.22685341
0.73809139 0.77372586 0.24378424
0.31279801 0.65129555 0.02380356
0.2439094 0.66313207 0.29471103
0.2743519 0.80348839 0.21888874
0.09723091 0.33962549 0.29476824
0.39380756 0.68663102 0.17827637
0.77360687 0.60529196 0.28336759
0.14131159 0.42584112 0.24205361
0.19768054 0.92819385 0.17205704
0.97782519 0.65938977 7.5486e-04
0.51204351 0.29612076 0.19330062
0.70831963 0.10433418 0.18206823
0.53957657 0.75144541 0.19153224
0.55404798 0.99505907 -0.01727056
0.32305979 0.84992943 0.15051233
0.05780588 0.08721498 0.02236506
0.66446803 0.25484831 0.16398384
0.94592402 0.26004579 0.29306604
0.04646357 0.83465071 0.28008064
0.3147627 0.68985963 0.34259219
0.68255385 0.50159214 0.11946386
0.04921473 0.26798064 0.02899613
0.61325168 0.21933139 0.23846557
0.65461038 0.74600309 0.01924646
1.01159088 0.15160295 0.0824493
0.7763525 0.31395971 0.13628439
0.17984524 0.40802099 0.17765204
0.49101573 0.66176337 0.12020494
0.7095852 0.38324654 0.06844432
0.44742519 0.55783856 0.20110106
0.21109531 0.69639628 0.15966749
0.87509881 0.54790236 0.04931753
0.79991301 0.67732789 0.01799478
0.21876909 0.31434314 0.2299558
0.30692278 0.51992572 0.25754785
0.96905892 -0.03080574 0.23951127
0.16472886 0.15410058 0.05596145
0.22780669 0.45825088 0.09002438
0.21174183 0.99405128 0.04271232
0.19396067 0.84883409 0.11077363
0.02975325 0.58891702 0.08062271
0.34873908 0.34436396 0.09058146
0.18397095 0.69618121 0.00821802
0.07661113 0.82409793 0.17144331
0.0690256 0.83552091 0.33829749
0.94908568 0.93327633 0.30783452
0.69493439 0.33387439 0.21773706
0.49700057 0.81422773 0.12500259
0.54690081 0.08221197 0.29954096
0.37457059 0.20113347 0.17327541
0.87637541 0.81342536 0.0348144
0.23477318 0.03658151 0.12835338
0.53937755 0.37637074 0.09279618
0.6916537 0.14762848 0.01525696
0.14507201 0.70603932 0.22779192
0.61285054 0.37885304 0.15384863
0.24533439 0.49390685 0.31835882
0.24324705 0.84511877 0.03678056
0.23443066 0.64933914 0.07358966
0.72396501 0.52192338 0.2269139
0.57464451 0.43146139 0.22066013
0.50332018 0.21422394 0.12577094
0.69677003 0.61063377 0.05898838
0.85354457 0.52104739 0.33845325
0.09804612 0.19437512 0.25351702
0.36794895 0.08415349 0.0638837
0.70425876 0.81322795 0.1598757
0.40648936 0.8411373 0.20654823
0.73695573 0.46522192 0.02597032
0.78323139 0.62140709 0.14272306
0.70561176 0.18450528 0.28902876
0.35829533 0.92534123 0.08893219
0.50848542 0.90887089 0.04511051
0.15242267 0.552831 0.02157865
0.30717757 0.01920356 0.20494489
0.5438131 0.5380389 0.28523586
0.53255454 0.74850624 0.30756134
0.93407919 0.19073856 0.01895288
0.32015286 0.18147273 0.23668986
0.38776745 0.80214496 0.27938434
0.45209644 0.47025801 0.14526889
0.2095647 0.38157206 0.03341409
0.63211331 0.58709281 -0.00185967
0.07058236 0.30720432 0.19269445
0.88115662 0.36538838 0.19412186
0.05677744 0.07445408 0.30838518
0.23537226 0.20201715 0.30043896
0.39442022 0.06425621 0.13814523
0.43912141 0.25736546 0.25788511
0.81725169 0.33614569 0.27500652
0.75582404 0.79072522 0.0804876
0.41706021 0.53886743 0.06721445
0.44755266 0.43679188 0.29434401
0.60604069 0.35093105 0.01237736
0.88720604 0.80135316 0.30968732
-5.575e-05 0.51552736 0.31654937
0.12615911 0.55869322 0.13363534
0.66871161 0.41259971 0.34179322
0.90300516 0.74300058 0.17058547
0.54807572 0.25255921 0.30380052
0.31474342 0.56664548 0.12728727
0.41157259 0.99617502 0.26360453
0.04360291 0.75706154 0.05428148
0.2996739 0.34859581 0.2820375
0.73036238 0.92462517 0.21498804
0.04829307 0.41701626 0.05764449
0.58389327 0.83893298 0.23482132
0.38272591 0.11206271 0.30872632
0.85956158 0.42341394 0.08975559
0.65508962 0.69631246 0.124225
0.93136905 0.05227035 0.12877021
0.82099953 0.20359989 0.20606444
0.52768746 0.6608494 0.02878687
0.09453839 0.29535609 0.10919519
0.83355394 0.02660168 0.26055138
0.22768649 0.2608374 0.1582229
0.39626273 0.8735291 0.00237225
0.60132845 0.02747104 0.23259362
0.88090119 0.52230156 0.24254442
0.72829141 0.87703996 0.28171352
0.83178026 0.08866522 0.03508674
0.40151273 0.39498889 0.22705826
0.64368069 0.35750426 0.27910128
0.39393379 0.04998127 1.6404e-04
0.96512897 0.98259938 0.04926768
0.89063234 0.87326836 0.11445521
0.20604915 0.82925069 0.29725634
0.05421589 0.60188551 0.24663651
0.81981467 0.2666385 0.05623028
0.80285282 0.15472034 0.13292933
0.12843576 0.96653572 0.22446446
0.9438867 0.23556188 0.14326741
0.3577076 0.75924639 0.06352742
-0.01911074 0.12749945 0.19389497
0.74852178 0.95799839 0.13135301
