POSCAR file written by OVITO Basic 3.5.4
1
17.563496 0.0 0.0
0.0 17.563496 0.0
0.0 0.0 42.15
W Nb Hf Zr 
50 50 50 50 
Direct
0.7637201 0.90120089 0.04743696
0.22149572 0.04250991 0.04502342
0.77755582 0.06165421 0.06548802
0.98108053 0.38730347 0.26676232
0.61781472 0.1219564 0.05382879
0.30213472 0.41854462 0.00140352
0.81788975 0.26816097 0.10143534
0.22747441 0.03667223 0.11016631
0.84445053 0.3931745 0.29612106
0.4691532 0.79166114 0.27801347
0.42642125 0.74978274 0.16739481
0.16147915 0.13724747 0.2425478
0.97720015 0.65895003 0.32794242
0.32335714 0.34904012 0.06794602
0.59927654 0.44994247 0.06511229
0.50397629 0.13140218 0.23059019
0.98608738 0.26586163 0.0264061
0.66620654 0.9485684 0.08078312
0.00839269 0.82698369 0.15479853
0.98671329 0.53894168 0.12223516
0.89640355 0.49256819 0.21672265
0.79213238 0.54356617 0.26841611
0.94935209 0.51991594 0.31040611
0.41309637 0.26304924 0.02863152
0.08307742 0.62761629 0.28586746
0.99564242 0.91639203 0.19869717
0.04368146 0.89678448 0.25117605
0.21109417 0.18280178 0.13500193
0.1774184 0.72575504 0.26660851
0.86970669 0.24372613 0.3075621
0.24420261 0.94390708 0.16455918
0.90336221 0.76484382 0.20065148
0.79044628 0.74297595 0.16086747
0.51170665 0.2702142 0.16705773
0.66355628 0.62361199 0.2925166
0.61370206 0.63618147 0.09213227
0.73615175 0.49172893 0.19346237
0.11121179 0.08824465 0.0891783
0.53156441 0.20556833 0.33166651
0.23699152 0.54290158 0.13424965
0.34492549 0.57335711 0.03690451
0.35638028 0.86912173 0.19829931
0.79399079 0.12027758 0.30003722
0.47887173 0.88339531 0.15711188
0.55501533 0.17889288 0.12060442
0.52620643 0.98713744 0.05576125
0.84410137 0.86707991 0.23698652
0.81254947 0.97569865 0.10804551
0.5546937 0.28148004 0.04792485
0.98575276 0.28520995 0.07952515
0.58453542 0.70805919 0.02149483
0.71582139 0.29727823 0.29772285
0.97102857 0.6208666 0.18536121
0.3384909 0.57266688 0.23926355
0.67283678 0.21431741 0.08880857
0.03475165 0.71100837 0.12136311
0.87010586 0.13252217 0.11118779
0.67330378 0.87263411 0.14682805
0.16499184 0.74387807 0.33021293
0.65406501 0.49621233 0.13641768
0.50421512 0.5488537 0.12257767
0.01051281 0.97289288 0.30393692
0.19046925 0.91164702 0.0241731
0.42530212 0.2910625 0.11514056
0.70765585 0.62667847 0.02428089
0.61477488 0.76030546 0.27532264
0.32187405 0.70930493 0.28390081
0.26439705 0.26919135 0.23003085
0.07570771 0.16205503 0.19582462
0.96266574 0.32498452 0.14716741
0.15477641 0.75917917 0.0626369
0.84645075 0.67464858 0.3103254
0.9878968 0.39906979 0.0014788
0.14634396 0.17823587 0.03288714
0.8289215 0.73786509 0.04264619
0.17862998 0.62055486 0.22622179
0.6237939 0.95689732 0.18305165
0.66547924 0.82819963 0.21915364
0.41280243 0.68835354 0.33013836
0.39193812 0.20245393 0.20839851
0.804878 0.36198568 0.24104468
0.55171376 0.38321954 0.11976677
0.13060381 0.23167789 0.0915409
0.97315431 0.76682407 0.28265229
0.28370824 0.75094265 0.02881039
0.73487949 0.67261171 0.10633312
0.33098021 0.28079194 0.15921836
0.67835498 0.31578305 0.17492492
0.71103621 0.76494628 0.00107787
0.65923077 0.41113237 0.25425735
0.94983613 0.60657668 0.25808565
0.11912243 0.58063751 0.16848598
0.27752724 0.64916927 0.0810605
0.47140303 0.57289356 0.17737029
0.90678138 0.42207837 0.09909633
0.38061446 0.43987158 0.16243815
0.87992305 0.67918885 0.11917813
0.0125072 0.73368639 0.05288914
0.17554617 0.07980769 0.31764329
0.12627392 0.31289864 0.25567859
0.12496017 0.8310917 0.19785261
0.28293028 0.08444476 0.26851081
0.97556859 0.09906021 0.33007327
0.84350914 0.0056502 0.00661281
0.38594007 0.01964455 0.10272125
0.9281708 0.62041992 0.06071786
0.29631492 0.17581694 0.07462557
0.09418722 0.57245886 0.02274494
0.91204387 0.90386641 0.05656883
0.03385735 0.43969631 0.05004298
0.89892334 0.07169672 0.18812176
0.26213345 0.41085291 0.26419538
0.66935444 0.78389907 0.07325298
0.45106339 0.00935817 0.18883076
0.54595739 0.01581509 0.12510206
0.84327179 0.8422215 0.30981621
0.46357286 0.12544766 0.06184749
0.60894364 0.68054205 0.16026245
0.41193905 0.18702446 0.28186733
0.46319968 0.68048972 0.12213872
0.83938003 0.37386492 0.17080636
0.5594455 0.35438883 0.31031318
0.43014836 0.74831045 0.06154386
0.05303504 0.99957818 0.03591471
0.82394552 0.6152606 0.21373835
0.57509041 0.42528519 0.1956327
0.40999529 0.1277208 0.13802647
0.85660237 0.82198685 0.11199471
0.83509135 0.54473478 0.02739354
0.26817697 0.10278687 0.17894748
0.26923636 0.23878546 0.32066957
0.82347953 0.90240914 0.17582159
0.51739216 0.8675248 0.2244679
0.08922371 0.43117961 0.10712314
0.22757995 0.42758209 0.18798925
0.73994136 0.22225779 0.23658987
0.39625403 0.92583513 0.04927812
0.64821738 0.13110587 0.27468189
0.11867519 0.60209543 0.08550998
0.51518804 0.88261592 0.10015003
0.72601193 0.48686573 0.32058697
0.56631684 0.85741633 0.02240196
0.79571301 0.20590705 0.16243778
0.35920691 0.07779238 0.00958645
0.23886001 0.57739848 0.30810388
0.3857573 0.50020748 0.30152148
0.05114941 0.22496377 0.30329881
0.79356265 0.7360872 0.25296346
0.98233587 0.32811117 0.20649751
0.56701106 0.27269429 0.23836967
0.95387483 0.12044531 0.05704094
0.03424942 0.84143287 0.33192986
0.36621228 0.51715511 0.09919267
0.40276757 0.32797295 0.2910103
0.63479394 0.1440323 0.17848869
0.69997978 0.07448244 0.12492142
0.4393144 0.40704837 0.03892823
0.47679946 0.62541747 0.2664094
0.73661882 0.51113117 0.07905396
0.20440428 0.9934392 0.21839688
0.21652046 0.47806454 0.05237726
0.1825842 0.69012952 0.13694615
0.73863888 0.18800788 0.02306607
0.03917817 0.72741216 0.23097669
0.68210453 0.35201392 0.03086488
0.32000196 0.61166406 0.16697513
0.51470703 0.04614055 0.32011388
0.35564369 0.89069951 0.32516366
0.52097291 0.47262418 0.25817269
0.42842716 0.01650941 0.25935115
0.13064243 0.43585226 0.31229539
0.57639652 0.99927795 0.25305689
0.4054634 0.38028616 0.22127148
0.86751556 0.53644174 0.14820843
0.30631581 0.79323101 0.13137958
0.10470152 0.99273026 0.1600935
0.02733612 0.4659217 0.16872957
0.50822651 0.56949103 0.0644562
0.13417254 0.30138606 0.17312468
0.73791236 0.05311945 0.21678889
0.24758999 0.38580027 0.1173229
0.16255161 0.93396747 0.29571394
0.72059423 0.91686898 0.26874085
0.85738689 0.34963474 0.03196497
0.87048072 0.01006345 0.26376429
0.67197335 0.01781089 0.00884537
0.66915488 0.60568756 0.23012759
0.56372887 0.55779797 0.33048583
0.16019402 0.3155202 0.02987428
0.0560523 0.89940423 0.09887225
0.24243028 0.88888621 0.0855251
0.26784167 0.73713928 0.20704678
0.0819751 0.48657337 0.24145542
0.72520512 0.36015958 0.10586746
0.96101952 0.97676921 0.13075855
0.42308494 0.71521276 0.2260011
0.01754582 0.17624193 0.13409952
0.28867927 0.87186199 0.26303815
0.03424403 0.04700971 0.24769834
0.94407284 0.20521379 0.25601705
