POSCAR file written by OVITO Basic 3.5.4
1
17.563496 0.0 0.0
0.0 17.563496 0.0
0.0 0.0 42.15
W Nb Hf Zr 
50 50 50 50 
Direct
0.76885982 0.88839083 0.04828244
0.24876004 0.01516697 0.04110838
0.77613348 0.12534353 0.06578612
0.9575192 0.35802426 0.2513644
0.6341633 0.0920802 0.09027453
0.31598195 0.5310158 0.02494982
0.87281575 0.26141975 0.06702105
0.28414776 0.0505646 0.11108239
0.8286499 0.4227888 0.29456365
0.46566336 0.79574396 0.29880043
0.44086398 0.75230693 0.16801628
0.17791836 0.1823992 0.24690328
1.00992108 0.6301122 0.31678807
0.25220813 0.34403475 0.04789517
0.57713967 0.40189474 0.08547555
0.50197734 0.0423358 0.25402362
1.03549399 0.22878304 0.01875137
0.62873397 0.93300238 0.07333687
0.00683712 0.84134187 0.16472825
1.03439441 0.56901476 0.12755156
0.89727283 0.48443684 0.22342479
0.77701659 0.53349993 0.2642394
0.9705009 0.50472373 0.28124597
0.37861207 0.2409268 0.02585416
0.10330261 0.61532389 0.26563743
0.97328542 0.94414545 0.21108494
0.06843458 0.84280084 0.23963859
0.19566204 0.16728017 0.13924645
0.19048134 0.73375418 0.25591112
0.87637481 0.26231604 0.30053511
0.28333254 0.93419741 0.15633732
0.93312427 0.78569936 0.21833479
0.78449171 0.76451497 0.19314492
0.46805049 0.27692991 0.18319167
0.70503023 0.63530669 0.29526016
0.61483232 0.59472177 0.09825732
0.70728047 0.48327569 0.20868003
0.13374253 0.0718099 0.08603597
0.50803358 0.24173501 0.31501222
0.27104212 0.44911875 0.12885874
0.33415556 0.61037691 0.07008143
0.34485876 0.87654771 0.19825855
0.77689679 0.16620896 0.29436969
0.53271196 0.86666781 0.14011241
0.53651475 0.21371631 0.11970525
0.51343588 1.0108059 0.05307497
0.86190439 0.85981588 0.25180963
0.79317205 0.95405161 0.10071912
0.60348035 0.21224986 0.06220224
0.99921321 0.29099683 0.07410431
0.5139659 0.70112847 0.04352444
0.70274482 0.28904206 0.30872794
1.03517559 0.59675772 0.191836
0.38365341 0.56391564 0.24408015
0.70292514 0.25973962 0.111304
0.01877251 0.78488277 0.08264373
0.8330027 0.12606033 0.11432012
0.69154876 0.90217016 0.14810553
0.14648899 0.72256833 0.31641552
0.65604044 0.58664031 0.16504878
0.50410717 0.49300496 0.13093608
-0.03809171 0.94444758 0.29800981
0.17715126 0.82918664 0.03472339
0.4422426 0.2881787 0.08732661
0.65493766 0.65076039 0.03184745
0.65184698 0.76604961 0.28944306
0.32334064 0.72549416 0.30537374
0.31758443 0.30303236 0.25865904
0.07158078 0.14068889 0.19591483
0.90318598 0.30007143 0.13092845
0.22548039 0.74669166 0.07705605
0.85360538 0.61977832 0.31196362
1.01979068 0.41874757 -0.01763894
0.12443433 0.10725017 0.02312273
0.82484231 0.70528844 0.06322281
0.20531879 0.60413786 0.23010587
0.58454048 1.00408265 0.2012109
0.65738585 0.83956292 0.21769022
0.49935223 0.7092484 0.34910993
0.43068295 0.15869816 0.21395873
0.81826134 0.35846461 0.2355531
0.57365573 0.32927405 0.15178205
0.12832926 0.24211194 0.07324183
0.9991621 0.74978992 0.28021313
0.20764303 0.63464987 0.01697394
0.73364776 0.66233228 0.13296818
0.28967264 0.26122122 0.19338443
0.66067645 0.34221941 0.20325596
0.75185619 0.76862393 0.02121699
0.69126552 0.37810753 0.26664373
0.94527369 0.63062068 0.2462387
0.17944192 0.57746895 0.15741667
0.25033074 0.65320358 0.11860039
0.52143048 0.59608349 0.17629501
0.86455281 0.39184207 0.08031401
0.40448974 0.38178611 0.1523621
0.94292168 0.7098913 0.16154617
0.04771798 0.73597245 0.02799913
0.10998285 0.09855081 0.30411436
0.15107574 0.33251586 0.23076678
0.15009987 0.87209587 0.18670996
0.25938935 0.05400774 0.28993166
0.93970554 0.14082738 0.32110176
0.86753393 0.00598986 0.0282295
0.42995666 -0.02801401 0.11770603
0.9425616 0.60715239 0.06458656
0.27951684 0.2012069 0.08129829
0.04343047 0.57861401 -0.0130629
0.90357237 0.84307944 0.04880165
0.00644285 0.44000364 0.04900186
0.86180107 0.12217588 0.17985004
0.22978551 0.43498987 0.27334959
0.6781394 0.79446773 0.08829443
0.43633596 0.00269602 0.18017408
0.54773395 0.06876373 0.14116599
0.83578424 0.80823593 0.31311949
0.44593815 0.11551799 0.07243122
0.61572868 0.74491034 0.15377856
0.38926582 0.17660945 0.28203947
0.44948075 0.65928628 0.11128123
0.83912914 0.40990536 0.16947354
0.56817561 0.40331633 0.31860304
0.33843871 0.71283247 0.02559571
0.04657723 0.93578796 0.04017193
0.79783711 0.61354526 0.19153624
0.54036706 0.42976346 0.19636984
0.38059505 0.16461423 0.13116609
0.81638322 0.80611155 0.11930215
0.91715279 0.50477877 -1.0867e-04
0.274256 0.11439975 0.19607999
0.20770849 0.27926131 0.29967703
0.84970404 0.90940683 0.18490495
0.4935099 0.85633923 0.22289358
0.1189002 0.37521703 0.09751444
0.24379244 0.44442194 0.19294628
0.74502081 0.20884462 0.23208523
0.4030524 0.99581713 0.01187954
0.61733418 0.13807248 0.27870387
0.11772541 0.62066644 0.07633917
0.47372157 0.83669033 0.07141478
0.73474358 0.50307814 0.32376562
0.61363288 0.87113214 0.02013934
0.76759615 0.25597071 0.17000374
0.2906811 0.15169766 0.0073927
0.218347 0.59710541 0.29877844
0.41073063 0.55853766 0.3115178
0.05328531 0.24781971 0.30058545
0.81334348 0.72564137 0.25640848
0.94629241 0.28613486 0.19175094
0.54554913 0.2738221 0.25452514
0.96111045 0.11914564 0.05717349
-0.00791543 0.82285034 0.34205202
0.37171454 0.42976834 0.07295481
0.42135066 0.38109055 0.3001581
0.58685639 0.17649416 0.19507041
0.70506754 0.08221621 0.14594352
0.46303712 0.36119812 0.01671182
0.53357139 0.67218138 0.28791939
0.77989973 0.54418064 0.06002754
0.22140142 0.95840769 0.22446086
0.1790185 0.47758703 0.04472776
0.09951785 0.71522557 0.13568603
0.75437326 0.21691458 0.01609089
0.09250955 0.71735075 0.204257
0.72012641 0.37954323 0.05366966
0.38572584 0.55581594 0.1694136
0.46682897 0.08097358 0.31239097
0.33123252 0.92965755 0.32330699
0.5786505 0.5083418 0.26443306
0.37752242 0.00740328 0.24526242
0.05231174 0.42619197 0.30853254
0.54099435 0.91833173 0.29212494
0.4002374 0.4201682 0.21848984
0.8811077 0.55936037 0.11629435
0.32421974 0.80784929 0.12681794
0.11008201 1.02504146 0.1534935
0.00449413 0.44567378 0.15837589
0.51129616 0.5481157 0.05397633
0.12695749 0.28509154 0.17648578
0.72480546 0.03528383 0.20882034
0.27309165 0.30145399 0.12420634
0.13320997 0.89323205 0.2973627
0.72846454 0.90945146 0.27844278
0.87345692 0.32802993 0.00884366
0.86663038 0.04671697 0.25031753
0.68872107 0.04506623 0.02451435
0.6679925 0.67442456 0.23437801
0.54553578 0.5473438 0.33621065
0.15605878 0.32127392 0.00467597
0.12010855 0.89893721 0.10284008
0.32728876 0.92107333 0.07331129
0.28868601 0.72062158 0.17031367
0.08128683 0.45336376 0.2349908
0.70798857 0.4498505 0.13028244
0.93993212 0.96027862 0.1078255
0.39096553 0.70006328 0.23346291
0.01384729 0.14785983 0.12451882
0.3194556 0.85825316 0.26977211
0.04526163 0.01551116 0.25219766
0.97667532 0.1824747 0.24825817
