POSCAR file written by OVITO Basic 3.5.4
1
17.616934 0.0 0.0
0.0 17.616934 0.0
0.0 0.0 42.27
W Nb Hf Zr 
50 50 50 50 
Direct
0.5685652 0.80221229 0.04918134
0.2007233 0.18336672 0.14368523
0.77281989 0.81465442 0.04665796
0.24063382 0.49457168 0.24346902
0.54679297 -0.06979245 0.07088693
0.5402447 0.46565412 0.05650359
1.02531938 0.42727807 0.28799976
0.73040389 0.02939254 0.161262
0.78440791 0.69438749 0.24720654
0.56674661 0.94953978 0.15137047
0.727138 0.50314745 0.18269374
0.47037452 -0.02372585 0.18546053
0.95524666 0.47661979 0.11062061
0.46502889 0.58863135 0.28674414
0.80440539 0.72190702 0.1858355
0.43659411 0.17560321 -0.02060718
0.08062379 0.05233796 0.26373046
0.56928573 0.09888842 0.15955042
0.3597772 0.91449263 0.29582402
0.64062285 0.61598954 0.27466646
0.75803872 0.63747226 0.13639961
0.67936426 0.78186512 0.161602
0.06170239 0.70857194 0.2726186
0.43993756 0.34553131 0.07860867
-0.05381148 0.73368874 0.15868872
0.84007229 0.57244405 0.20581828
0.21653975 0.07230082 0.21878111
0.14862273 0.0459159 0.11918179
-0.00220762 0.51139759 0.17656525
0.94949894 0.45911481 0.2457584
0.40750503 0.60428962 0.2186728
-0.04524493 0.69063775 0.10485693
0.87096783 0.84582688 0.25726013
0.78240428 0.03340474 0.25388255
0.8847592 0.57975847 0.14965124
0.53198989 0.59727257 0.08914328
0.92068455 0.21716415 0.0798432
0.01209083 0.86141043 0.13548434
0.34242544 0.22360974 0.07919571
0.36629429 0.35733855 0.18952365
0.28481968 0.77740658 0.13703495
0.03290651 1.07865329 0.33401402
0.93852507 0.26791539 0.21559658
0.30394864 0.51889183 0.19179405
0.40711571 0.17629374 0.1724439
0.56179471 0.86418001 0.20459182
0.58124017 0.07782761 0.05684521
1.0732223 0.43652051 0.08786977
0.43396258 0.29270632 0.0176174
0.06526161 0.2245057 0.29207718
0.7276645 1.16240604 0.04228163
0.05900943 0.328399 0.13063573
0.83653742 0.25248839 0.01459299
0.57037256 0.54224148 0.22548556
0.08549346 1.04865879 0.18578167
0.93628708 0.96343018 0.22756295
0.55857571 0.20720256 0.09048965
0.62705829 0.66236767 6.9859e-04
0.23117196 0.83430173 0.29100006
0.68839275 0.18420381 0.14435124
0.50720895 0.2737715 0.1453913
0.17321486 0.95381741 0.06812536
0.33200314 0.28650462 0.14172118
0.60947111 0.36107872 0.10171716
0.91738771 0.73288304 0.22960188
0.64949863 0.71920087 0.22540436
0.32517049 0.62174362 0.02278799
0.30207293 0.65649335 0.26179206
0.27525032 0.89669187 0.18880944
0.08371875 0.54164262 0.26821534
0.33054857 0.73750875 0.19445787
0.80023 0.51582976 0.27205642
0.28651715 0.33007814 0.25836859
0.14812371 0.91125682 0.16183141
1.16882031 0.50879376 0.03187053
0.66414703 0.28243019 0.26613646
0.63852769 0.05334459 0.20770307
0.50651457 0.71225962 0.19181993
0.57313983 1.16341972 0.00503203
0.29414015 1.08316155 0.15885782
0.14510581 -0.20575567 0.10908156
0.61091543 0.23812402 0.20800268
0.9531778 0.30406999 0.27342761
0.06820169 0.84445091 0.28907915
0.33279341 0.72385199 0.31343613
0.62085028 0.61871016 0.16531473
0.06232228 0.3071361 0.06281746
0.52224539 0.25921972 0.28771767
0.66725262 0.806674 0.00772911
1.01406917 0.03925686 0.08074319
0.80007678 0.44471429 0.10810949
0.13218149 0.46585919 0.1547305
0.4182185 0.68838262 0.12362752
0.76767339 0.2694559 0.08265557
0.44188515 0.54263404 0.16967276
0.10890874 0.73592487 0.1658468
1.06374915 0.39180283 0.00910002
0.75322582 0.62894353 0.0292753
0.13525588 0.31439385 0.26227014
0.42018028 0.44653561 0.24081858
0.9590525 0.12328118 0.24650413
0.1235909 0.16310133 0.08537781
0.20981168 0.50559244 0.08880115
0.29765951 0.93433779 0.12150155
0.08328455 0.71205034 0.04808358
-0.01999634 0.53994725 0.03816592
0.32543779 0.4426345 0.13478523
0.1802534 0.95812529 -0.00490938
0.01337866 0.84992021 0.19741523
0.00304816 0.88922287 0.35301394
0.94548592 0.99217908 0.29207345
0.78534678 0.2391144 0.21780423
0.42928302 0.84942672 0.14413045
0.49863171 0.074956 0.3018453
0.29863014 0.20652335 0.21468202
0.93965586 0.76442827 0.05403871
0.27869774 0.10765676 0.09372133
0.64369225 0.5036399 0.10466343
0.8817532 -0.11047961 0.01370572
0.14803952 0.77626048 0.2242086
0.69477884 0.33620688 0.16397335
0.31419715 0.54198472 0.29310516
0.26359627 0.83140918 0.04881445
0.25839254 0.68777996 0.07971839
0.71067939 0.40923001 0.22737733
0.54236876 0.41263542 0.18494431
0.43159646 0.12237415 0.03287279
0.63360539 0.54623511 0.03363576
0.92344682 0.60004554 0.27625464
0.10408303 0.18217544 0.22402121
0.26633723 0.09014401 0.02080949
0.71379161 0.87157719 0.10815259
0.39507242 0.83565017 0.23595532
0.57525311 0.30288266 0.03556853
0.84401761 0.78692426 0.1117817
0.81049082 0.18012373 0.28691473
0.4115702 0.83640598 0.07530561
0.69538153 0.94605243 0.0554054
0.30865657 0.41384334 0.04113839
0.33449903 0.00229637 0.24286008
0.57600615 0.67013026 0.32615246
0.50304198 0.74450654 0.2658913
0.98800869 0.20791724 0.03092601
0.22146899 0.15729934 0.27862318
0.30943573 0.91080044 0.34725119
0.49734832 0.45393284 0.12068297
0.17722477 0.2980195 0.01894925
0.7343323 0.39830794 0.04352209
0.06051121 0.37845541 0.21538818
0.88456045 0.38007766 0.17399397
-0.03810715 0.20665759 0.33490833
0.16397544 0.14870773 0.34694465
0.47271068 0.09987027 0.11158982
0.3554904 0.18173396 0.27745425
0.81242138 0.36161186 0.27544199
0.66186405 0.69029473 0.07232213
0.37714251 0.53558687 0.07849471
0.41651605 0.44432683 0.31940388
0.57535671 0.4584046 -0.00832087
0.91915119 0.79301965 0.30563024
0.19725216 0.69025533 0.31801703
0.07549513 0.5967161 0.11414986
0.79064042 0.66571343 0.30822487
0.84620893 0.88079654 0.16678329
0.67598477 0.46267438 0.30278407
0.26380893 0.60807304 0.14049302
0.13436169 0.97499946 0.30662212
0.03028273 0.90861425 0.05149576
0.21582324 0.42451992 0.30235204
0.71109237 0.86297399 0.21918916
-0.09915756 0.39456904 0.05329717
0.50235401 0.92041025 0.2622531
0.32003763 0.05538358 0.32274372
0.84861348 0.60196701 0.07443447
0.54721166 0.78295458 0.11718001
0.94848311 0.00202039 0.14699712
0.63249121 0.06180987 0.28685967
0.42898028 0.4966707 0.01537992
0.22026166 0.3264501 0.10606167
0.83684276 0.10274192 0.19365224
0.21429579 0.31871078 0.18229285
0.55070361 0.95641037 0.00890478
0.49343985 0.08582615 0.22402933
1.01841457 0.61312101 0.21741075
0.70083329 0.80848281 0.28108633
0.92279221 0.06219255 0.0361215
0.47161912 0.28830112 0.22688832
0.56744455 0.4138908 0.27631156
0.33062263 -0.02799453 0.04888766
1.10106476 1.07558239 0.01811134
0.83496905 0.94134453 0.08453513
0.15516968 0.93119883 0.3590016
0.19587577 0.63478514 0.20695856
0.95903166 0.1666855 -0.02622566
0.81289145 0.11426687 0.08429999
0.1251052 0.93260484 0.23608693
0.86131657 0.21117216 0.14178528
0.45905879 0.6916338 0.05392438
0.01525881 0.17044467 0.1562804
0.67060758 1.05132186 0.10592708
