POSCAR file written by OVITO Basic 3.5.4
1
17.616934 0.0 0.0
0.0 17.616934 0.0
0.0 0.0 42.27
W Nb Hf Zr 
50 50 50 50 
Direct
0.62142487 0.86795918 0.05886161
0.17180135 0.20011841 0.15576759
0.77299569 0.82019568 0.06468721
0.18126309 0.44858397 0.23979419
0.5181555 -0.02833177 0.08339753
0.5385686 0.46509144 0.03656003
0.97065502 0.436501 0.29154769
0.7761249 -0.0248419 0.13879625
0.78893427 0.70240407 0.26859568
0.53263196 0.93394213 0.15406775
0.73315437 0.48491277 0.16679495
0.4380863 -0.00859891 0.19331691
0.97593869 0.50502566 0.09904909
0.49151975 0.53630635 0.28877973
0.80591423 0.75743943 0.19387719
0.44054868 0.21519381 0.01098376
0.11556912 0.05314361 0.26115559
0.57145384 0.10405648 0.14578442
0.38076602 0.9303888 0.27590511
0.63705154 0.60796895 0.29712055
0.74599008 0.62577397 0.1518772
0.64901038 0.74099781 0.15757366
0.05845617 0.74674695 0.27041019
0.41142837 0.34768956 0.1010787
-0.04139566 0.72846202 0.16570802
0.85912689 0.62380911 0.20306659
0.23602678 0.09227457 0.21803562
0.12942519 0.04642232 0.13353998
0.01483132 0.50281282 0.18297356
0.94957522 0.47513203 0.23858992
0.44801865 0.6172178 0.25025278
-0.02611991 0.6720847 0.09260239
0.86889529 0.86303471 0.24319049
0.8369959 0.04677543 0.24648712
0.92864583 0.5984474 0.14643591
0.5305567 0.59089632 0.07968796
0.91495244 0.2221571 0.07970676
-0.01230969 0.81846629 0.10966989
0.27941253 0.27923237 0.06812588
0.42413401 0.36270009 0.1738251
0.2615354 0.77733301 0.12018718
0.04575244 1.03072452 0.31120463
0.89015307 0.27414931 0.21521899
0.28789434 0.49383543 0.20762258
0.44952797 0.17087829 0.18645309
0.59778993 0.83934854 0.19591757
0.54239873 0.06787451 0.04139268
1.07453242 0.4441269 0.06766884
0.46213086 0.34771638 0.04552265
0.08899217 0.1823398 0.2842027
0.70578394 1.14628336 0.03807867
-0.01216526 0.37619899 0.13540213
0.81572675 0.25570586 0.03098738
0.61050423 0.57743619 0.22369098
0.08820228 1.02539546 0.18406069
0.9735345 0.97154008 0.22479943
0.5685752 0.21472351 0.10077407
0.58633104 0.73635629 0.04007383
0.28442128 0.82392365 0.27746536
0.68348326 0.17495392 0.13589038
0.52347637 0.27880911 0.16094588
0.1815813 1.01875162 0.07566228
0.31252069 0.24937603 0.14356932
0.5651277 0.368744 0.08509405
0.96033611 0.76168559 0.2354691
0.67200038 0.73503723 0.23079905
0.22413731 0.53513651 0.01132656
0.27424835 0.64799661 0.24949526
0.31793353 0.91367751 0.21486605
0.06686231 0.5488809 0.27785883
0.32120837 0.70475161 0.18475982
0.73902092 0.57326724 0.25061792
0.30670545 0.36584649 0.25587429
0.20966708 0.9123458 0.16517625
1.14847222 0.44167553 0.01143632
0.67875793 0.27833489 0.27385148
0.6734914 0.03733468 0.18534755
0.50309738 0.70195171 0.19886374
0.51001905 1.09201617 -0.01990056
0.3208723 1.08518939 0.17705918
0.12968193 -0.10876909 0.11548238
0.60179379 0.18157241 0.20522503
0.96917568 0.29638734 0.26650862
0.04603086 0.89615631 0.26729226
0.36313828 0.66207664 0.30434046
0.57372846 0.60593356 0.15771126
0.03687694 0.28746932 0.07010998
0.56834335 0.21027248 0.29300261
0.66766969 0.85267548 -0.01354983
1.00786453 0.04082857 0.09364196
0.82114286 0.39040131 0.10279347
0.12477452 0.44635843 0.15737343
0.39706213 0.68788027 0.12539461
0.71847974 0.27204769 0.0720492
0.3935988 0.55430814 0.17191602
0.12813048 0.71107093 0.15803191
0.97873953 0.35334491 0.01048511
0.74167145 0.74550217 0.01934626
0.12436578 0.31800851 0.25734744
0.43880793 0.47008753 0.23461594
0.96348525 0.14679908 0.24393962
0.10299341 0.17071444 0.08452636
0.20479057 0.50807701 0.07713893
0.29755343 0.95008693 0.11356888
0.14799392 0.74336523 0.06843225
0.0649463 0.57896867 0.05459169
0.31137591 0.41135253 0.1350349
0.17544584 0.94517255 0.02235549
0.05559446 0.85359671 0.19099517
0.00503934 0.88413619 0.32639566
0.89219105 0.99166454 0.29685733
0.71728772 0.26473934 0.20612715
0.40009207 0.83814729 0.14970469
0.46825098 0.03167179 0.30340256
0.33488611 0.23981525 0.2170087
0.88217876 0.69906898 0.04806893
0.29508664 0.1290993 0.10126523
0.66866199 0.5204927 0.10891539
0.85263898 -0.09915094 0.01474511
0.18566284 0.76433516 0.22048006
0.65967916 0.35829962 0.13830596
0.31780964 0.5019394 0.2806997
0.26880657 0.82988053 0.05582715
0.29180352 0.66796768 0.06190865
0.73861996 0.42360039 0.22094113
0.59936286 0.44471792 0.18979432
0.43161873 0.2047948 0.07236612
0.65833666 0.59920587 0.02488124
0.86882143 0.57335259 0.28151143
0.11579228 0.18358369 0.21882991
0.30036382 0.14941518 0.02953281
0.68560049 0.8642719 0.12954222
0.40704586 0.80596893 0.23121377
0.58584431 0.26493434 0.0294434
0.83656454 0.72743416 0.11789987
0.79899696 0.16449371 0.29416471
0.42560594 0.84076723 0.07584351
0.67084929 1.01265549 0.0142771
0.30936621 0.36756913 0.02737154
0.34181322 0.06594752 0.24926541
0.53554964 0.59067876 0.34700923
0.54418182 0.71951214 0.28502194
0.93903176 0.19739171 0.01380552
0.24395827 0.18564551 0.27266421
0.32602127 0.8588333 0.33686175
0.50429156 0.44925386 0.1346971
0.14444705 0.29530315 0.02559974
0.72866338 0.4192592 0.05161609
0.04683641 0.34994845 0.20407959
0.87974872 0.4251003 0.19112839
-0.06394945 0.18541487 0.31592069
0.17634163 0.12814416 0.33244248
0.4255759 0.0609513 0.12024185
0.40624939 0.23518041 0.30641821
0.82065481 0.37022579 0.28062912
0.70110216 0.69841145 0.09210614
0.4003707 0.5107602 0.06884343
0.429413 0.38658817 0.29999866
0.49407651 0.36432208 -0.02601007
0.89886428 0.79445434 0.29706252
0.20358054 0.68765992 0.30909679
0.08278237 0.58709339 0.12449236
0.76555099 0.64685598 0.32147837
0.87519489 0.88288371 0.17529585
0.73459094 0.49985606 0.30888666
0.25224825 0.62631531 0.1367547
0.22063619 0.98285403 0.31397474
0.02544473 0.91738324 0.05364514
0.19061151 0.3625255 0.31059744
0.75425704 0.90195523 0.21697739
-0.09358432 0.39253677 0.05711573
0.5639537 0.85591472 0.26129063
0.3380546 0.11625955 0.33282666
0.84204262 0.55980581 0.07172676
0.52891222 0.77585787 0.1143241
0.96292466 -0.02660926 0.14251066
0.71706394 0.10798964 0.2397141
0.49572042 0.57084034 0.01394437
0.15546083 0.32841195 0.11283841
0.82848909 0.08659707 0.17759783
0.2242761 0.34987962 0.19205517
0.51869638 0.88872988 0.01232328
0.52617125 0.08873949 0.24408241
1.00095907 0.63684014 0.22046389
0.70893695 0.79911765 0.31118232
0.8643682 0.06298206 0.06482364
0.49947569 0.28879532 0.24129767
0.61864214 0.4518272 0.27092855
0.38261181 7.816e-04 0.06101732
0.99048496 1.05230987 0.01761139
0.84869047 0.89620147 0.09653755
0.1625298 0.83024373 0.3095598
0.14286269 0.57819639 0.20812862
0.80240256 0.06416527 -0.00417393
0.82631113 0.11463302 0.11619177
0.18937261 0.91876424 0.23772295
0.821032 0.28089774 0.14330411
0.45302694 0.69208514 0.0498477
-0.01994575 0.15865981 0.13839474
0.68863545 1.02570036 0.08464356
