POSCAR file written by OVITO Basic 3.5.4
1
17.620497 0.0 0.0
0.0 17.620497 0.0
0.0 0.0 42.27
W Nb Hf Zr 
50 50 50 50 
Direct
0.18227728 0.05505012 0.09397927
0.26682445 0.18251542 0.11827743
0.38271745 0.97147127 0.07814973
0.27786826 0.2925027 0.23610624
0.29970337 0.11446077 0.06018793
0.4413563 0.35307443 0.28952683
0.80456172 0.26707008 0.29520388
0.54950652 0.63227599 0.03657223
0.90109837 0.51273983 0.22475525
0.45924423 0.88958167 0.27784493
0.24931998 0.67628748 0.16709551
0.91889564 0.1392169 0.20595547
0.84473823 0.75825271 0.2755666
0.54668824 0.42646171 0.2486977
0.97724417 0.57643283 0.03961003
0.50713444 0.17061747 0.13941186
0.06585885 0.69560523 0.06616706
0.61078782 0.06132457 0.16045153
0.37237885 0.09735008 0.13050538
0.92501582 0.62946512 0.10823605
0.68300219 0.28512722 0.16928434
0.90794834 0.64543708 0.23120414
0.26580883 0.93357454 0.05482372
0.16770142 0.15128724 0.32512603
0.45931464 0.79384806 0.23365956
0.85830602 0.23096833 0.04117388
0.1069754 0.80079726 0.15723458
0.89867994 0.37103939 0.1953303
1.00245764 0.67761864 0.00403884
0.01119438 0.12231773 0.25997662
0.82487231 0.58312317 0.05632447
0.98436674 0.00977665 0.15338124
0.51970464 0.78054302 0.11419882
0.41294261 0.37581689 0.04274238
0.10800644 0.66477175 0.18693342
0.06206337 0.5564688 0.09130729
0.53038287 0.16310519 0.00992916
0.96366725 0.1130786 0.05625432
0.42573831 0.50428485 0.25293038
0.37051286 0.22377215 0.16310857
0.46204246 0.6141085 0.31096464
0.05775679 0.11555615 0.19151591
0.99406119 0.25429737 0.02499833
0.12722241 0.94853217 0.16200092
0.20615524 0.98238338 0.22324809
0.59520371 0.65876521 0.08938173
0.95728303 0.97934601 0.08576856
0.74607068 0.17347276 0.12170119
0.67791511 0.71654892 0.30670738
0.8093961 0.01336299 0.06414418
0.67744584 0.78954315 0.08915796
0.83810609 0.7770369 0.13938464
0.30074397 0.35611271 0.12424836
0.82291132 0.27159062 0.23390099
0.01140163 0.2633755 0.2277811
0.8222984 0.78350652 0.20510469
0.25326961 0.86489475 0.17341439
0.9641456 0.73077939 0.16418542
0.15009557 0.51086577 0.30547212
0.42922143 0.290397 0.22562248
0.63790746 0.45433913 0.17719534
0.66280714 0.08695065 0.04388488
0.08578812 0.00816861 0.05620852
0.32260757 0.56977027 0.29160676
0.81489042 0.58521352 0.27434167
0.40290571 0.67373711 0.02142452
0.05559676 0.39789939 0.17809932
0.40425199 0.19545123 0.02220978
0.48890266 0.49222203 -0.0048044
0.11687466 0.25269846 0.11464648
0.13653679 0.41605085 0.1220801
0.35854233 0.50668041 0.02707005
0.14847014 0.77274087 0.29974585
0.04743435 0.1025162 0.11749553
0.70728796 0.75305301 0.15299537
0.76052993 0.43686152 0.22308711
0.84742048 0.96006296 0.13089828
0.40021195 0.66929531 0.08126508
0.7794312 0.10188486 0.23524301
0.80762868 0.85666169 0.02224945
0.55831149 0.48543018 0.05189197
0.53047186 0.28849385 0.04115341
0.6340852 0.91155224 0.14557116
0.2399907 0.69840701 0.26189878
0.59186788 0.80909513 0.2619784
0.54073169 0.77234695 0.18530917
0.99940676 0.22772827 0.15668214
0.63085181 0.34643532 -0.00235774
0.97347588 0.22334144 0.29064698
0.90081201 0.01120088 0.22593556
0.78606739 0.65183538 0.10824857
0.21466451 0.05487033 0.00976517
0.10211511 0.66503955 0.12700916
0.60631958 0.5735339 0.31084545
0.78914002 0.82444599 0.32368485
0.01004838 0.40845274 0.26815207
0.67341551 0.87922119 0.21165377
0.97563984 0.88611181 0.18651798
0.4366175 0.9379034 0.33916776
0.32757634 0.16478459 0.21393957
0.15119962 0.81897118 0.23114998
0.30533818 0.82564289 0.22846669
0.81578812 0.07366924 0.00820907
0.69473007 1.02214579 0.1044189
0.25058565 0.94723284 0.122378
0.1220961 0.55403039 0.00769853
0.13185569 0.17075014 0.05041172
0.15893182 0.53825111 0.1734416
0.06951327 0.37086147 0.0652124
0.2719992 0.53062952 0.21931625
0.79424218 -0.09812979 0.17938845
0.9665834 0.40306707 0.12842226
0.38800081 0.03134895 0.01644817
0.23539239 0.08598014 0.16923976
0.36716788 -0.01171927 0.17074321
0.16413865 0.92007933 0.00913138
0.46450352 0.47617201 0.32293892
0.49983028 0.55883929 0.12425403
0.19235941 0.77959063 0.02797169
0.48090389 0.65613271 0.17741091
0.90167994 0.39563114 0.04045309
0.39996499 0.24967381 0.08994758
0.49289087 0.13051808 0.20355851
0.50548989 0.93453486 0.2058205
0.94648964 0.58805631 0.28323819
0.78306843 0.44279386 0.15153498
0.53654134 0.65376185 0.25139187
0.34511029 0.57373458 0.1609686
0.70850075 0.69577607 0.23895992
0.16016526 -0.03224301 0.28343932
0.51747173 0.34438939 0.14734141
0.79682571 0.06948412 0.16855855
0.18954905 0.0400955 0.3576969
1.11887601 0.39629072 -0.0027147
0.80007948 0.60460843 0.18402588
0.4953628 0.18225664 0.2655408
0.79705705 0.91021142 0.26662329
0.57435745 0.00770206 -0.01183442
0.38424388 0.73075234 0.2877317
0.26428606 0.54614541 0.10513779
0.71960775 0.29051147 0.04425455
0.60398562 1.00817182 0.23971657
0.69251502 0.52246771 0.10459112
0.21447041 0.62603829 0.33800987
0.7639972 0.6324378 0.33966169
0.66225883 0.10254899 0.29487243
0.14636962 0.24847975 0.17874002
0.13455779 0.87914835 0.08811726
0.64035768 0.36788651 0.10004445
0.29055261 0.40681484 0.18002568
0.23555863 0.73314586 0.10498033
0.96411276 0.783178 0.24413731
0.28180786 0.30876253 0.04718316
0.32181298 0.23580032 0.29043572
-0.06848621 0.90449381 0.30120712
0.69954297 0.94701498 0.0257332
0.20634181 0.47885647 0.04669141
0.64162308 0.16798196 0.22429733
0.54114967 0.74754075 0.3264633
0.41161592 0.821205 0.1570624
0.63462784 0.54346749 -0.00799753
0.24711539 0.63394812 0.03668377
0.84117858 0.4236956 0.2818081
0.36921361 0.66288728 0.22472549
0.64970662 0.42103169 0.30287175
0.44524165 0.4388895 0.09768416
0.04471747 0.08417528 0.31612605
0.3701433 0.80796165 0.07677451
0.8271432 0.2685793 0.15496225
0.49070467 0.12663814 0.06323593
0.28442434 0.43391832 0.31542997
0.36902024 1.02481513 0.24690779
0.16186624 0.14577596 0.2435947
0.45136057 0.46304884 0.19597782
0.71581899 0.67399905 0.02783092
0.61774275 0.20569015 0.10292511
0.870997 0.4965101 0.10588334
0.80239933 0.86248969 0.08602499
-0.00773408 0.56629609 0.15944873
0.49931553 0.9908394 0.12369503
0.03977847 -0.03217446 0.23387013
-0.04123306 0.80987255 0.09360185
0.5296899 0.95936188 0.05250378
0.14938392 0.4164873 0.23885755
0.9705626 0.25688175 0.0925986
0.0057504 0.82820552 0.03025212
0.79727481 0.31684354 -0.00929473
0.87027096 0.71219618 0.04947024
0.87506713 0.11152085 0.11384187
0.29305702 0.07614765 0.29219505
0.54597337 0.79441936 0.04823605
0.09722775 0.61876049 0.25986292
0.73587346 0.4726159 0.03654739
0.81124318 0.34772504 0.08587176
0.67524758 0.51320316 0.24339842
0.30793846 0.91127982 0.30421712
0.16658361 0.30836286 0.28183854
0.63902672 0.31609761 0.24387963
0.63972322 0.5952302 0.18057478
0.86884692 0.10502559 0.29817904
