POSCAR file written by OVITO Basic 3.5.4
1
17.620497 0.0 0.0
0.0 17.620497 0.0
0.0 0.0 42.27
W Nb Hf Zr 
50 50 50 50 
Direct
0.19320915 -0.07769525 0.11551028
0.33165664 0.18845962 0.09605846
0.50272859 0.98631905 0.07881011
0.26303009 0.16534579 0.2175843
0.34091092 0.01770167 0.07888962
0.31313835 0.3418287 0.25274967
0.79730391 -0.00196998 0.2375443
0.4831869 0.68448842 0.07684613
0.90261725 0.44112952 0.23083671
0.50266687 1.1234852 0.25546141
0.16617244 0.68501242 0.25002703
0.88022114 0.09887843 0.20971306
0.89061615 0.66650286 0.30355984
0.49482472 0.36928932 0.22067258
1.04568391 0.60962762 0.02795069
0.6604218 0.13995317 0.1320096
0.13608669 0.73106261 0.05362703
0.57083853 0.08817498 0.19290009
0.26655364 0.06459199 0.15671365
1.00301355 0.67839528 0.07607772
0.69508002 0.37275275 0.10735982
0.8705035 0.60206897 0.23105739
0.24993982 0.87817919 0.06201292
0.15849182 0.07598322 0.31728885
0.36794539 0.89819392 0.27580705
0.79079301 0.22933362 0.04268241
0.09394078 0.75144388 0.18462734
0.95401789 0.34635324 0.18290783
1.14509205 0.71686435 -0.00812845
-0.08168187 0.09814205 0.27357449
0.86251376 0.61502004 0.05784049
0.95896625 0.01340519 0.16320741
0.5589883 0.84083435 0.08822252
0.39581859 0.43980055 0.02057872
0.0614171 0.68887332 0.12984544
0.11928833 0.5326597 0.05585212
0.522385 0.17130785 -0.00196686
1.0838627 0.14344376 0.05671791
0.39269525 0.45999656 0.22843087
0.28511358 0.21121246 0.15790148
0.3956825 0.63547504 0.27534074
0.00453219 0.04568288 0.21987507
0.93819092 0.25185184 0.05533169
0.10054293 0.91909394 0.15284391
0.23014812 1.01651334 0.21856946
0.50479076 0.74901771 0.13953052
1.12120791 1.01277866 0.04001009
0.76893072 0.22834836 0.10735941
0.745529 0.7131301 0.2911736
0.88862907 0.12781584 0.08393963
0.66073794 0.80403731 0.13234524
0.84053961 0.77608517 0.09982983
0.3135243 0.37073759 0.12379197
0.9032286 0.29069627 0.23984302
0.05658762 0.27697344 0.25565517
0.85460878 0.75133042 0.24707542
0.43936419 0.87122484 0.22550583
0.92029727 0.68008684 0.18238122
0.14285969 0.4800732 0.30605718
0.36398519 0.30866416 0.18810055
0.62534151 0.45918513 0.15906447
0.66168776 0.22170385 0.00855992
0.07536048 0.07428773 -0.00791963
0.25590657 0.61860741 0.29518618
0.71767096 0.53995141 0.263166
0.40162992 0.68777708 0.00818604
0.08613702 0.44020882 0.17060837
0.37958392 0.14967385 0.044563
0.45763149 0.57240446 0.02581177
0.16602678 0.30332844 0.12455543
0.15592071 0.44517443 0.10786703
0.40861344 0.51032466 0.0901243
0.25826185 0.78647329 0.29796348
0.03231134 0.02011072 0.10115436
0.77532793 0.75454673 0.15988647
0.67437829 0.3868341 0.22046052
0.91024802 0.97793321 0.10179156
0.39267633 0.65034958 0.12303318
0.65395616 0.08677197 0.24888737
0.9613633 0.9934398 0.03931165
0.62374942 0.56269744 0.03099907
0.55757093 0.30044998 0.02374241
0.60950198 0.96544933 0.12571718
0.08160416 0.63085295 0.29636046
0.54134571 0.98243291 0.25035765
0.57294595 0.79030902 0.20194317
0.99109293 0.18640164 0.18392125
0.54285615 0.4349797 -3.7621e-04
0.76722076 0.01725334 0.29873081
0.87513187 -0.09145171 0.20300349
0.87153974 0.63336054 0.12507678
0.19308952 0.16357405 0.00745673
0.16745179 0.61610785 0.1016938
0.57114679 0.62460248 0.27477545
0.60961439 0.74988132 0.29856994
0.03668256 0.40731125 0.263292
0.66392732 0.93029944 0.20481715
0.98564193 0.8477044 0.13668753
0.47558362 0.86365194 0.30687494
0.42419723 0.22944857 0.23570271
0.19369877 0.87509912 0.2314379
0.24117982 1.00150328 0.28953441
0.86616885 0.20636953 -0.00966529
0.72347525 1.03754285 0.10012511
0.28097881 0.8886735 0.1703303
0.22554572 0.55797575 0.00898864
0.17913577 0.06311404 0.09487415
0.10819819 0.59225807 0.17448462
0.09422492 0.33355202 0.05682267
0.2016454 0.45670147 0.23582431
0.77200727 -0.09215649 0.15903668
1.00406304 0.38719999 0.11911028
0.43261388 -0.0017226 0.02111051
0.12481574 0.10494599 0.16251299
0.41285103 0.02650172 0.20823723
0.26123963 0.96630187 0.00818201
0.49044311 0.46541484 0.26556267
0.54258752 0.57151386 0.10994771
0.29276537 0.80786776 8.6852e-04
0.47600069 0.62595236 0.19657052
1.07545199 0.46607628 0.00322402
0.48121657 0.15925643 0.09683972
0.43172326 0.13329337 0.16440758
0.52479206 0.91838886 0.16808043
0.88655384 0.53048813 0.28435026
0.83439697 0.43775061 0.14504477
0.48553507 0.75592567 0.25462267
0.31527212 0.59675384 0.21876995
0.67406474 0.68678607 0.22844161
0.04287106 -0.01385565 0.27449704
0.48683148 0.30261538 0.13437785
0.73256629 0.08042234 0.18801378
0.16619288 -0.09023973 0.34970163
1.03750735 0.2201091 0.00711461
0.77067332 0.52713454 0.18785694
0.4625791 0.31628715 0.28313891
0.6968272 0.86413886 0.26653771
0.56427943 0.04822915 -0.01063853
0.38687222 0.73646604 0.33746718
0.26925474 0.53989594 0.13925346
0.69129592 0.39195003 0.02907679
0.57758417 1.24940842 0.23325207
0.73588484 0.53152787 0.08222387
0.16771343 0.75261571 0.34516049
0.71030988 0.59692365 0.32714914
0.61775352 -0.06073918 0.31328757
0.20404017 0.3054771 0.21754497
0.18237043 0.783415 0.12634637
0.51968981 0.41314486 0.0724925
0.23732143 0.41085772 0.16567703
0.24761153 0.68914608 0.16956942
1.00608587 0.71138161 0.25780086
0.21333997 0.25218185 0.06446075
0.31681403 0.1833087 0.28865696
0.08432155 0.82626328 0.29207855
0.79796852 1.08034892 0.03295465
0.26463761 0.43648489 0.06420306
0.666615 0.28113753 0.17227893
0.52508341 0.63905135 0.32895004
0.37118236 0.7872278 0.16535434
0.57187331 0.6968261 -5.8015e-04
0.321645 0.63163495 0.07263373
0.78439662 0.3889071 0.26437787
0.31200168 0.75169797 0.22861401
0.63557616 0.37702928 0.2869478
0.38323169 0.29597475 0.05949516
-0.00899373 0.08038742 0.3313512
0.37322727 0.81231091 0.0970544
0.82494585 0.27344813 0.18402285
0.57966529 0.11723405 0.05167473
0.3388833 0.4846082 0.30177782
0.44123223 1.01467136 0.29827625
0.12830816 0.11490874 0.25079447
0.44308375 0.46124642 0.16725042
0.64049292 0.71541276 0.06854445
0.6326155 0.24828033 0.08008159
0.98229381 0.44450259 0.06477941
0.74683245 0.87881457 0.08477581
-0.0324576 0.53968233 0.1468258
0.3908864 0.9874792 0.13335719
0.02358436 -0.12906988 0.22240023
0.03507831 0.85357341 0.07457302
0.61342184 0.91663524 0.03734351
0.18200654 0.29548718 0.28982317
1.02028161 0.20918327 0.12701374
0.11753303 0.85595167 0.00902012
0.93824166 0.36599453 0.01341397
0.85475624 0.766098 0.03860257
0.85093241 0.13367481 0.14512532
0.28369687 0.05473812 0.35173064
0.45339479 0.81711506 0.03135559
0.033912 0.56296862 0.23944276
0.75508051 0.62267585 0.00378141
0.82243679 0.36718863 0.0732921
0.59494227 0.54245407 0.21607461
0.30611783 0.87881776 0.35508576
-0.05900527 0.24105273 0.3068327
0.75043373 0.19287579 0.24405656
0.65114122 0.64429288 0.14952201
0.88544829 -0.13405684 0.29143342
