POSCAR file written by OVITO Basic 3.5.4
1
17.50115 0.0 0.0
0.0 17.50115 0.0
0.0 0.0 42.0
W Nb Hf Zr 
50 50 50 50 
Direct
0.62606238 -0.0045076 0.2732979
0.28529042 0.99400257 0.16683284
0.71004825 0.09590689 0.29876348
0.17704064 0.46560273 0.22495767
0.50319562 0.06385568 0.13330795
0.10452087 0.3865507 0.12334395
0.83517865 0.28838759 0.0491962
0.41581223 0.07893358 0.24655357
0.93015091 0.63473845 0.26575061
0.47197756 0.79174121 0.32780583
0.63745025 0.54142795 0.15497057
0.53157368 0.19321657 0.17540265
0.92831617 0.66773103 0.32208022
0.38684994 0.41104543 0.30598414
0.5195457 0.50122595 0.05245585
0.51308372 0.94798233 0.04343011
0.04219702 -0.00918575 0.12886195
0.79005146 0.00231507 0.11224592
0.88542605 0.92511897 0.15815171
0.841372 0.44977417 0.03904077
0.23009235 0.81634453 0.07547307
0.77710795 0.68376522 0.08301834
0.619988 0.2244095 0.30895901
0.19636761 0.32983005 0.18629035
0.02552034 0.93366105 0.00611797
-0.01514131 0.81685215 0.13468034
0.14812829 0.25687517 0.1377426
0.31503072 0.88229479 0.11809015
0.06482696 0.71059323 0.25799056
0.98363323 0.03879026 0.03426968
0.90534734 0.52546594 0.31670597
0.18555156 0.93118071 0.21775475
0.74049343 0.96718059 0.17266093
0.68197533 0.89556163 0.23175016
0.95767078 0.79291115 0.19091921
0.60421164 0.61144016 0.103542
0.72832935 0.41946359 0.14758962
0.29692885 0.86381057 0.1904361
0.7781523 0.17720815 0.01348017
0.15366762 0.63133376 0.22381366
0.07494995 0.57018077 0.09305026
0.40767317 0.08298641 0.18172444
0.03420437 0.02064135 0.30661417
0.05687568 0.88363558 0.25519836
0.66405016 0.12221573 0.08286935
0.49833068 0.08075956 0.06760898
0.01709835 0.92885883 0.18425807
0.92193596 0.91729243 0.28732798
0.27066989 0.30842637 0.052234
0.6279778 0.53613978 0.01437406
0.51641215 0.36293611 0.03169799
0.91954277 0.4550079 0.20961547
-0.01807009 0.60965456 0.02829184
0.37704402 0.37713483 0.25439726
0.92636067 0.06139927 0.09823143
0.02424116 0.79414162 0.01893363
0.91025984 0.88571935 0.08832383
0.19793627 0.66365237 0.15864909
0.06542872 0.61282153 0.3157957
0.79485763 0.66637486 0.21298786
0.44383572 0.62278234 0.08557679
0.18736654 0.96642231 0.29029762
-0.0071514 0.34423133 0.02444363
0.64082138 0.45260265 0.21328056
0.80548879 0.60991635 0.02392213
0.47581664 0.91219109 0.09684949
0.10570839 0.27694527 0.07257895
0.15167656 0.11308549 0.30066281
0.28561561 0.69385097 0.21640969
0.18140573 0.04079396 0.11684362
0.23229326 0.63171945 0.28177729
0.76018412 0.81490072 0.18851545
0.60002944 0.39457262 0.32437095
0.31022913 0.71075463 0.05249399
0.80088536 0.75050514 0.0130047
0.33557015 0.39700161 0.18246308
0.74459914 0.03909275 0.22810472
0.48224968 0.76298593 0.13662581
0.36431655 0.57311577 0.13847486
0.70000604 0.25129125 0.11097395
0.77482556 0.17341158 0.18331031
0.43263908 0.3418958 0.08472812
0.08912018 0.33744377 0.31324827
0.00990154 0.81470171 0.30487478
0.07390129 0.4573991 0.32983251
0.52664117 0.86959442 0.20819455
0.12224678 0.06647327 0.1779004
0.64543036 0.28119663 0.1731408
0.77350371 0.84102189 0.05766793
0.90008036 0.5531865 0.07613288
0.65240647 0.59027567 0.21141074
0.00339138 0.18015035 0.14550521
-0.00314837 0.45279851 0.06047851
0.4823802 0.48816893 0.11990092
0.50218896 0.2978373 0.29501889
0.2399465 0.15192497 0.15852621
0.88169674 0.92206937 0.01966961
0.84597064 0.69616112 0.15063358
0.53288525 0.47440488 0.27449273
0.66521428 0.35776666 0.2712991
0.93770378 0.46608085 0.13960408
0.19492752 0.01302157 0.04240165
0.21388811 0.19667299 0.01502627
0.00678777 0.20080482 0.27862365
0.42415063 0.92982987 0.16336854
0.17713822 0.84959453 0.01846687
0.24556959 0.17394338 0.07948525
0.21734575 0.23246022 0.25708756
0.42472067 0.76809638 0.20742374
0.76370616 0.46879746 0.31238628
0.45820395 0.98424682 0.32160804
0.78785258 0.55647616 0.16129871
0.63112149 0.79625504 0.08281633
0.48261476 0.332748 0.14720496
0.76159471 0.36863439 0.21503739
0.04893325 0.04286468 0.24667791
0.31972277 0.75152826 0.14100253
0.32521472 0.54475451 0.22038108
0.37009483 0.04291087 0.10724022
0.64751372 0.89487906 0.02642706
0.63936996 0.25132316 0.02388292
0.27874847 0.3361782 0.11328392
0.36047885 0.0816546 0.03270074
0.87830513 0.07215771 0.16562448
0.70141783 0.69691174 0.14368747
0.61788191 0.39072323 0.10153118
0.40412026 0.18846199 0.13080703
0.92604563 0.73320561 0.06108702
0.65391248 0.66469757 0.0448962
0.08328204 0.53080609 0.17159713
0.52273479 0.11774379 0.28590181
0.73201827 0.84983222 0.12106563
0.6374505 0.81763374 0.30147476
0.15521817 0.63722988 0.0359309
0.03346405 0.67023453 0.14945588
0.88070012 0.08714154 0.28189406
0.05186065 0.14399594 -0.00193718
0.54125548 0.22857509 0.09229657
0.36054926 0.72063303 0.28305928
0.51646745 0.60381455 0.23621088
0.67147694 0.55278689 0.28013333
0.48310265 0.48262168 0.18634018
0.8184241 0.16534388 0.08894607
0.31364202 0.06062397 0.29850063
0.54708174 0.67914869 0.29350577
0.34336236 0.88678592 0.31335908
0.90479187 0.31000272 0.23526263
0.52959142 0.32324196 0.21861418
0.1092441 0.22613434 0.20381698
0.9214204 0.41015224 0.28809933
0.77596538 0.20530141 0.2544946
0.7950247 0.66487546 0.29220236
0.2171491 0.46904799 0.29542766
0.23901518 0.34053384 0.31964375
0.87765487 0.92966065 0.2264
0.78573845 0.03456835 0.04868263
0.36817972 0.47877478 0.07417129
0.65214088 0.73886817 0.23148906
0.40075221 0.21941202 0.04917793
0.25431575 0.07695955 0.22664428
0.97609384 0.32217054 0.108614
0.05879972 0.54391469 0.27007951
0.62427271 0.17407752 0.23782078
0.84481003 0.78680496 0.26607001
0.63299207 0.08218471 0.02955549
0.22019825 0.48396124 0.1589296
0.45574633 0.75359709 0.06289424
0.06349162 0.93181331 0.07083234
0.36093887 0.22974811 0.20750865
0.57709542 0.89221368 0.1461287
0.03087679 0.3713003 0.18478648
0.36529321 0.21695869 0.28180867
0.55869305 0.02135369 0.21400445
0.72478848 0.53130891 0.08721009
0.51090798 0.64331908 0.17134891
0.94956803 0.16164116 0.21788599
0.81968885 0.39636362 0.0930765
0.2414456 0.62198875 0.09513825
0.15386042 0.87286331 0.13481166
0.64244945 0.95897736 0.08322729
0.81373031 0.51932798 0.24560841
0.35546975 0.89628004 0.04158145
0.77023377 0.94212708 0.29047757
0.76336009 0.28860912 0.30660958
0.96487305 0.2043214 0.05804005
0.0815473 0.13384551 0.08111704
0.39077571 0.56124209 0.29777051
0.54738646 0.52800607 0.33564197
0.06216897 0.37123048 0.25388593
0.4750468 0.62698021 0.01462315
0.49781964 0.86610389 0.27565297
0.20676343 0.79020913 0.26178265
0.0920404 0.73537833 0.0859134
0.69214536 0.41327347 0.03696527
0.96011779 0.60955785 0.19812913
0.35566089 0.92946315 0.24442016
0.8876136 0.28112523 0.16453533
0.16694441 0.45700062 0.07076186
0.65658702 0.09169754 0.15823712
0.12573688 0.77528851 0.19252291
