POSCAR file written by OVITO Basic 3.5.4
1
17.670372 0.0 0.0
0.0 17.670372 0.0
0.0 0.0 42.408
W Nb Hf Zr 
50 50 50 50 
Direct
1.01799961 0.95432272 0.1938163
0.11310376 0.54475719 0.16337694
-0.03869536 0.33567367 0.18666612
0.89146947 0.83735409 0.30357921
0.59375613 0.64307961 0.07635781
0.639812 0.34695109 0.14063228
-0.0511519 0.41241422 0.13743354
0.27486694 0.88612991 0.27521072
1.13486318 0.01470461 0.28644692
0.26120408 0.60787164 0.22784163
0.41387629 0.59318991 0.24067819
0.736081 0.67809487 0.03599368
0.37228443 0.97783242 0.06752173
0.42772085 0.34141984 0.28095776
0.54597007 0.85244768 0.31550118
0.74092766 0.29871758 0.23581804
0.28176146 0.17705742 0.05040786
0.66534642 0.25912263 0.18997785
0.94742936 0.50026848 0.08051856
0.65319396 0.19142637 0.26075025
0.73264917 0.14722486 0.14471543
0.47856305 0.55948991 0.04677365
0.04787017 0.35367419 0.31992098
0.03634418 1.00035152 0.05045281
0.38759006 0.25078292 0.14640133
0.95197275 0.44736239 0.34110815
0.13301355 0.08035357 0.02339044
0.83430119 0.08708092 0.26091878
0.64157005 0.41569947 0.20697266
0.29233368 0.50385672 0.19279479
0.91116705 0.93742442 0.14394919
1.06809383 0.83364022 0.30172275
0.56633828 0.56434072 0.31690263
1.01387852 0.97274458 0.25619216
0.9872983 1.10540243 0.17478692
0.65740403 0.61602668 0.28195242
0.55072364 0.24823874 0.07342395
0.1289462 0.35686654 0.07465429
0.25122624 0.34682094 0.03144965
0.36895476 0.45031252 0.06901623
0.96014094 0.79830791 0.24771977
0.54550427 0.61465978 0.21753421
0.66373438 0.10988538 0.09951142
0.00940129 0.37058999 0.23314583
0.87088317 0.55750724 0.31902607
0.48129018 0.74601384 0.07378289
0.95797999 0.09215302 0.23058248
0.33109824 0.93133568 0.14301059
0.38352818 0.80591087 0.16114512
0.36135083 0.00480546 0.28279504
0.65557155 0.1795341 0.04494271
0.71592307 0.41377338 0.09628296
0.23044286 1.03799872 0.06657983
0.28596537 0.55409383 0.10057855
-0.00868905 0.49266774 0.29520779
0.03020719 0.85335938 0.05254988
0.85104714 0.31952092 0.08047925
1.05137574 0.26850906 0.27455947
0.7239364 0.98141435 0.14766582
1.01747018 0.69937897 0.2830261
0.60970441 0.64340929 0.14906431
0.83804705 0.22866816 0.01527352
0.14201509 0.59400344 0.28038676
0.26459114 0.29482993 0.1087483
0.14972356 0.16903975 0.14780163
-0.018362 0.79054773 0.18391174
0.53376608 0.50084309 0.14715977
0.24800865 1.04441583 0.24445567
0.55199248 0.39337858 0.09723626
0.27328955 0.22125442 0.19768839
0.23936156 0.48601969 0.05263022
0.77759172 0.45310235 0.29526495
0.74161642 0.67285404 0.09518742
-0.01198619 0.13691719 0.02173319
0.57465481 0.9568412 0.29272165
0.35303046 0.46719117 0.01199343
-0.00565395 0.35205947 0.07598421
0.47681493 1.04863659 0.2308436
0.21493453 0.38277008 0.23046642
0.74802009 0.21699855 0.29301161
0.12920915 0.1178111 0.21810067
0.35794952 0.2851369 0.00359821
0.23851042 0.69251579 0.18050423
0.9022147 0.72630184 0.33134615
1.01328827 0.58421783 0.12786993
0.32817778 0.75777677 0.24056366
0.82560492 0.63879987 0.1582266
0.12373602 0.36320909 0.01379612
0.79885374 0.07814546 0.04921149
0.07381673 0.24070403 0.04675616
0.00350896 0.12888547 0.28499552
0.69368792 0.5019878 0.15439184
0.46289071 0.47577842 0.29740044
0.78878794 0.83716012 0.09957997
0.25742308 0.88105545 0.09063442
0.91297451 0.19952417 0.067735
1.11824296 0.89506379 0.21765592
0.91776954 -0.07998877 0.07537857
0.27238853 0.34115143 0.29489114
0.65035347 0.79553959 0.0409129
1.13517716 0.59041403 0.32895675
0.45713255 0.18577537 0.02005332
-0.03341156 0.33384567 0.01562034
0.84997241 0.05716732 0.11580768
0.36030876 0.19842031 0.26934878
0.05241859 0.91971523 0.11602494
0.32311491 0.94964379 0.20308558
0.8633579 0.71765089 0.20944231
0.11670356 0.49193068 0.10030728
0.04735026 0.28856058 0.13061263
0.22961533 0.73885923 0.31143388
0.52929838 0.33934804 0.23913819
0.34991662 0.40680737 0.14361497
0.21061217 0.22612214 0.26925618
0.82552142 0.46032133 0.04127548
0.12396873 0.2734994 0.20359193
0.44990122 0.56916458 0.10478613
0.11074893 0.52082329 0.22707186
0.36463328 0.33570877 0.21326679
0.79983292 0.84779098 0.17526152
0.95889073 0.53641956 0.18652459
0.62878666 0.46836858 0.02168958
0.36006017 0.83704566 0.04166622
0.15753557 0.84058348 0.16027889
0.51596966 0.73297451 0.13833403
0.44646466 0.46212008 0.21203082
-0.08139362 0.63635484 0.07020054
0.57892021 0.48902981 0.25871011
0.48968771 0.65669523 0.28712965
0.16945306 1.02520921 0.17348547
0.56362782 0.21876403 0.14401833
0.51462674 0.36023015 0.16895419
0.49379928 0.09830225 0.08333134
0.72214634 0.86416231 0.29729764
0.75003265 0.94123926 0.01266954
0.73719345 0.23858879 0.0910097
0.30963977 0.45534643 0.27117056
0.64432385 0.70503044 0.33309572
0.29300642 0.71433455 0.10949388
0.07876512 0.41152721 0.17889992
0.49539884 0.69426275 0.01695105
0.70601762 0.02251331 0.28820585
0.08635392 0.19236344 0.33257682
0.41678844 -0.12049977 0.32741817
0.4561638 0.71410435 0.20293946
0.01338683 1.08344934 0.11499
0.06498604 0.49648334 0.03008757
0.72742839 0.97187062 0.08270955
0.46002303 0.86105697 0.25128608
0.88496325 0.22281322 0.14895114
0.87773718 0.01664709 0.31220366
0.17094147 0.76543312 0.23700789
0.24655909 0.0401687 0.33447907
0.28680527 0.18329243 0.3315931
0.71362228 0.53991111 0.33932967
0.71409815 0.34359567 0.02307241
0.89091442 0.59132252 0.25047884
0.62533604 0.76619597 0.24305976
0.38904613 0.73657693 0.31814427
0.462111 1.05012628 0.01198771
0.332357 0.62403073 0.05024652
0.83937031 0.05948063 0.18828323
0.48525663 0.37751444 0.01717312
0.93127132 0.98132252 0.00966124
0.87234722 0.42466752 0.22853769
0.74367391 0.77419754 -0.01143572
0.79736447 0.69793369 0.28011548
0.43517525 0.08940939 0.1717964
0.74992874 0.52602624 0.22632085
0.62940388 0.82066072 0.11578175
0.18785787 0.22531474 -0.00159519
0.70003336 0.70705008 0.18985621
0.6310609 0.1049796 0.19415097
-0.07751687 0.73162839 0.12120942
0.5875421 -0.01768657 0.13441538
0.17202863 0.16227861 0.08911343
0.83917336 0.23269134 0.21539827
0.13718507 0.66855706 0.11946972
0.15483898 0.44127861 0.29628047
0.22154074 0.3642995 0.15422385
0.53648517 0.90746999 0.05085138
0.47423507 0.90990696 0.18066254
0.30165005 0.01763413 0.00797038
0.63322845 0.34368437 0.28260196
0.3161428 0.61228138 0.29447288
0.85531069 0.81264705 0.0396892
0.3927012 0.61112741 0.16640615
0.43444918 0.8832296 0.11104966
0.50806947 0.15044714 0.28879781
0.33397434 0.06935317 0.12480169
0.82700459 0.49922224 0.12005402
0.50534391 0.20906265 0.21343208
0.77813597 0.34134572 0.16596899
0.38827942 0.26774797 0.07914003
0.10110333 0.67993569 0.2007164
0.8561761 0.92273241 0.2527697
0.89649683 0.30753828 0.29452455
0.6407776 0.92240267 0.20815586
0.19020986 -0.11979463 0.3351338
0.06565507 0.80480066 0.35756777
