POSCAR file written by OVITO Basic 3.5.4
1
17.50115 0.0 0.0
0.0 17.50115 0.0
0.0 0.0 42.0
W Nb Hf Zr 
50 50 50 50 
Direct
0.58144494 -0.03334116 0.26776475
0.25634921 0.96270788 0.17038664
0.76810404 0.15767927 0.2506201
0.1782939 0.44335501 0.23777055
0.48772574 0.07185281 0.1366327
0.13720577 0.33279084 0.11322529
0.82050312 0.30377507 0.07253647
0.43135726 -0.03245286 0.28147337
0.98563546 0.71633719 0.24468114
0.56131829 0.71137537 0.28280359
0.53667655 0.4714689 0.15346811
0.46494922 0.18490896 0.17864287
0.95724957 0.76643206 0.30706303
0.42231284 0.3551176 0.2989991
0.51661815 0.52485013 0.06663633
0.53535917 0.95795087 0.04892653
0.05236946 0.0354475 0.10954504
0.77250714 0.09449098 0.10250956
0.92018327 0.89680162 0.14125684
0.82840077 0.45513932 0.06684987
0.20594598 0.79206219 0.07628847
0.76750011 0.69797006 0.09443304
0.64584532 0.24194588 0.25838132
0.13609466 0.37381997 0.17745021
0.04802704 0.89533996 -0.00565549
0.03650055 0.82138507 0.13483719
0.21511582 0.22151614 0.09199221
0.3107398 0.87775949 0.11199522
0.11849889 0.62113063 0.24881826
1.01092043 0.00588749 0.03632869
0.92626354 0.63313993 0.2861072
0.15441653 0.91709924 0.2180342
0.78245948 0.99429542 0.15284801
0.60735514 0.85906735 0.21380884
0.92377055 0.81278758 0.19751102
0.58832949 0.6732192 0.07799827
0.66790161 0.38500857 0.14834432
0.23936859 0.80688976 0.16462414
0.74236308 0.21473591 0.03655789
0.18420906 0.5906546 0.18999903
-0.04550331 0.52141835 0.10493136
0.32418196 0.09894745 0.16859285
0.0392509 0.08333409 0.30116993
0.01603598 0.8992171 0.24724233
0.66320626 0.18535371 0.08358213
0.47316635 0.09297544 0.08018537
0.03227239 0.93165709 0.18228146
0.91981284 0.96533475 0.28300114
0.37453926 0.30437421 0.07802315
0.65440238 0.45749981 0.04474339
0.52432213 0.4247781 0.01804349
0.88547302 0.42908228 0.19574257
-0.08984208 0.61301339 0.06765703
0.29678068 0.42053787 0.26971505
0.96830369 0.12592785 0.06558586
-0.00483301 0.74676385 0.02601815
0.88429643 0.99090263 0.0921356
0.1548296 0.72432872 0.14205693
0.06670167 0.67098243 0.3090154
0.819491 0.67540331 0.24590113
0.44057489 0.65342417 0.072388
0.16361872 0.97511651 0.28095632
-0.03440387 0.30934576 0.0665811
0.58452433 0.44494268 0.21244055
0.74358968 0.60786603 0.05085792
0.47343919 0.91879093 0.0978982
0.25051115 0.26290495 0.02572164
0.155805 0.15150581 0.29076723
0.23460213 0.70983876 0.21123595
0.19466586 0.07826006 0.12636183
0.17851759 0.54774887 0.30143122
0.76353465 0.85871342 0.20410264
0.45138189 0.43483051 0.34744472
0.36380799 0.80869714 0.05701904
0.85008279 0.72074009 0.02543296
0.28615483 0.44683229 0.19322888
0.67836577 -0.01743009 0.20247682
0.48717433 0.78718993 0.12031257
0.30028406 0.6127314 0.16244767
0.72421577 0.25410001 0.13369077
0.77822972 0.11813165 0.18874349
0.48244717 0.41552278 0.09285971
0.24448389 0.19726983 0.32959974
0.05201434 0.90107586 0.3088546
0.01082802 0.53795059 0.32613289
0.51961654 0.75565318 0.1960596
0.10020623 0.07243621 0.17994916
0.59534385 0.26240086 0.19054231
0.79095622 0.88051232 0.05722802
0.80342071 0.57259681 0.12080105
0.5678411 0.59741241 0.21008739
0.07056125 0.19546584 0.10599515
0.07687485 0.44914658 0.08278371
0.35799205 0.50802861 0.10442315
0.55793245 0.27019808 0.30956117
0.19833749 0.21528611 0.16288818
0.91016864 0.89656506 0.02792317
0.76808193 0.72021379 0.18251094
0.5236599 0.45439382 0.27867998
0.65399493 0.37448486 0.2616485
0.99390336 0.3788544 0.14658917
0.2109042 -0.06846206 0.06290051
0.39809405 0.34655789 0.01725746
0.01207502 0.25108545 0.29474917
0.42538309 0.92813013 0.16643328
0.17304758 0.7976201 0.01916664
0.32023288 0.15087072 0.0544351
0.28854256 0.2522329 0.27698618
0.37579937 0.72016055 0.19487144
0.76860576 0.44312966 0.30803999
0.5063102 0.85660157 0.31894652
0.72180718 0.54367018 0.19505071
0.62419352 0.8465115 0.08504735
0.43349669 0.35393197 0.16841459
0.73498097 0.35789184 0.21540351
0.041985 0.05341075 0.23921268
0.3436609 0.72749967 0.11522828
0.26478541 0.56808927 0.25071762
0.3549086 0.02199056 0.10903097
0.6858665 0.9446548 0.01656801
0.62985372 0.31505899 0.02056428
0.27395025 0.37037045 0.13706386
0.46144119 0.05785294 0.00846369
0.92138826 0.06135727 0.15734247
0.64274034 0.72953889 0.14127269
0.64932718 0.34626282 0.08517891
0.35447437 0.19607654 0.12536127
0.90951672 0.79420375 0.08428966
0.6972781 0.74354987 0.02509871
0.0460422 0.49859766 0.18745137
0.54986111 0.115799 0.29219561
0.77771869 0.84728523 0.11884963
0.66236255 0.83711607 0.28260172
0.04867027 0.5446225 0.03741577
-0.0641655 0.69571672 0.14670358
0.89411793 0.13292384 0.3093665
0.17074446 -0.04301212 -0.00131407
0.53177496 0.22897813 0.12555883
0.36797482 0.73782633 0.29879208
0.45643603 0.62592133 0.25905195
0.65341246 0.56486662 0.2653863
0.43530605 0.50856416 0.20391142
0.91112875 0.20234591 0.11603558
0.29921214 0.06452054 0.30818943
0.54213221 0.59384246 0.32579381
0.3087585 0.88849139 0.31213662
1.00414704 0.35267465 0.2349853
0.47280604 0.3233081 0.2369066
0.13141511 0.25856404 0.22769575
0.94127013 0.395047 0.3025238
0.82886386 0.32459612 0.26406104
0.75857384 0.67721372 0.30407587
0.31217346 0.37144136 0.33568574
0.42376377 0.19175751 0.3345143
0.87546856 0.99304076 0.2196875
0.81971124 0.06676816 0.03448814
0.36833467 0.5179421 0.03065596
0.68231762 0.70081341 0.24161033
0.5057994 0.24889989 0.05647615
0.21181945 0.053332 0.22626057
1.11358227 0.2748059 0.03770236
0.01329317 0.50202964 0.26231192
0.61261395 0.13016895 0.22635572
0.83242386 0.83288736 0.26587233
0.61958985 0.1038405 0.02303993
0.18829305 0.51734669 0.12798748
0.53370304 0.79019065 0.02952077
0.04839966 0.86544254 0.07373556
0.29860702 0.27233116 0.21024391
0.59665827 0.93540076 0.15049542
0.01170388 0.22230851 0.1748841
0.40988973 0.13751549 0.25445718
0.49200729 0.03471816 0.20551891
0.63913663 0.53234661 0.12255913
0.48539527 0.60954319 0.13913719
0.91578567 0.16328021 0.23299549
0.81358028 0.40268673 0.12861836
0.2412497 0.63183052 0.07320319
0.15471621 0.92937354 0.12945117
0.63430237 1.02933335 0.08687004
0.8426593 0.51433373 0.2448303
0.3706902 0.96176134 0.03835331
0.74415195 0.99851374 0.27582467
0.71043791 0.25920943 0.31624032
0.91297456 0.25016288 0.01801186
0.14296705 0.0794119 0.05391916
0.36441014 0.52042797 0.31500085
0.61137242 0.41664662 0.33136682
0.12879464 0.36627279 0.29255558
0.53030618 0.62543221 0.02088612
0.4546413 0.83705492 0.24863739
0.1823377 0.75947087 0.26746931
0.07090879 0.67287229 0.09714908
0.77308166 0.40574789 0.01655077
0.89901532 0.58999051 0.1879304
0.31280834 0.89119708 0.23678451
0.86089224 0.27537495 0.17078183
0.23077441 0.4169925 0.0685339
0.62401082 0.1124328 0.15573117
0.07377246 0.77472376 0.20257815
