POSCAR file written by OVITO Basic 3.5.4
1
17.670372 0.0 0.0
0.0 17.670372 0.0
0.0 0.0 42.408
W Nb Hf Zr 
50 50 50 50 
Direct
0.90217007 0.9566237 0.21330385
0.2032999 0.60813164 0.14269983
-0.02702511 0.3584014 0.15849179
0.90114916 0.8690025 0.2839466
0.57099319 0.59151517 0.05929087
0.63067017 0.46270404 0.16643059
-0.03660479 0.44668462 0.10769158
0.18624714 0.90571782 0.26625626
1.03598751 0.11040936 0.31284345
0.22617705 0.54292394 0.28351873
0.33556027 0.56301676 0.24628772
0.65743211 0.66015526 0.0116807
0.42842381 0.92295032 0.09758162
0.30191185 0.24881038 0.29101989
0.49698561 0.78709692 0.30627269
0.65395161 0.33966969 0.26710144
0.35507595 0.18967968 0.08643363
0.68901594 0.3119426 0.18607651
0.94092124 0.53482235 0.0537768
0.66886742 0.22196589 0.23683958
0.78887158 0.20228928 0.16667322
0.42982156 0.51754315 0.04547008
0.07094246 0.40446988 0.2763501
0.03000468 0.91705003 0.03167615
0.43403427 0.16034083 0.15318952
0.95589398 0.44388863 0.32059241
0.2787599 0.09106225 0.05251501
0.78600095 0.11605827 0.27278966
0.71176427 0.41389403 0.22123916
0.25008468 0.463346 0.21173635
0.84174309 0.85275932 0.12999481
0.94800964 0.73334529 0.29341292
0.47785041 0.58639823 0.32644067
0.91470593 1.03512638 0.27326327
0.94718056 1.0240228 0.16026265
0.6853294 0.67601877 0.2706392
0.60947615 0.24455464 0.08654273
0.2643563 0.46269015 0.1225217
0.29035644 0.34461719 0.08954765
0.25698436 0.49565468 0.05337172
0.94703879 0.79101878 0.22227585
0.67786644 0.58319925 0.22153475
0.69039295 0.02024568 0.10309422
0.11096579 0.39565122 0.21861874
0.80089703 0.51694423 0.3131978
0.46289536 0.71083885 0.07713744
0.94948473 0.17806736 0.27811862
0.17526958 0.93405286 0.13071311
0.38975391 0.71851917 0.22562876
0.45938126 0.10889624 0.29645616
0.64278041 0.11156452 0.03317212
0.69022329 0.35833539 0.10254239
0.20100475 0.96429445 0.03671708
0.32552673 0.6024806 0.09099433
0.09322949 0.52050125 0.32559844
0.1183205 0.82926102 0.06812912
0.91024174 0.29403479 0.103372
0.93101273 0.33400534 0.27976567
0.79388062 0.8626611 0.19306717
1.04410844 0.72307529 0.33747907
0.68674788 0.65733135 0.12634983
0.86001074 0.25304117 0.03013898
0.11503982 0.64816427 0.28972986
0.27759949 0.21195478 0.13586283
0.11237158 0.08615626 0.14908589
-0.03758506 0.84272831 0.16991492
0.57501244 0.59427298 0.16004119
0.26833346 1.02751217 0.24099122
0.60903572 0.49941914 0.1009643
0.19419309 0.16606857 0.20192143
0.16994114 0.59075068 0.01575169
0.76619378 0.3908285 0.28886477
0.76546461 0.60664928 0.05722538
-0.00299664 0.12693122 0.04685247
0.56082676 0.89653856 0.29352097
0.26840023 0.45867186 -0.00691688
0.11675819 0.39122026 0.09220121
0.42658325 0.99051355 0.24512963
0.24603071 0.28904723 0.23036271
0.68712659 0.17003004 0.29799138
0.04987067 0.12253085 0.20045451
0.35959006 0.38810706 0.04146053
0.20346448 0.65746834 0.20803094
0.78969883 0.66320676 0.31971897
0.97842624 0.61787038 0.11217313
0.25876339 0.71613057 0.26038051
0.81745547 0.73203375 0.08981459
0.15602479 0.30721071 0.03046111
0.7770812 0.08149102 0.04974864
0.01225863 0.30186967 0.03260593
0.04833692 0.31834846 0.32025692
0.80323137 0.53389415 0.17803461
0.48849753 0.49159053 0.26962084
0.6933918 0.81416488 0.143281
0.24975365 0.8681083 0.08547554
0.96762612 0.11550188 0.1078287
1.02965198 0.91469633 0.2479164
0.91127273 -0.00351577 0.05526506
0.34892765 0.49542196 0.30276393
0.6433415 0.73695263 0.06283076
0.68591154 0.46615709 0.34748872
0.46220679 0.16913257 0.03244788
0.09738139 0.17506566 0.00603728
0.79881882 3.319e-05 0.15689959
0.37210759 0.2610293 0.18845688
0.01598978 0.92049933 0.11179901
0.28818004 0.86374734 0.21747322
0.98339981 0.63857626 0.23181114
0.11584749 0.54217582 0.10167204
0.0885279 0.2361166 0.13793123
0.15421944 0.80912739 0.32460371
0.55168224 0.34272062 0.2034434
0.41326199 0.46129906 0.10060871
0.08450252 0.08027259 0.25591995
0.85025856 0.41501152 0.06064743
0.06104183 0.28058591 0.22768895
0.47240935 0.59100875 0.11765702
0.11893218 0.52119712 0.23759928
0.36933871 0.35059628 0.13951181
0.8781462 0.69447836 0.13953146
0.93879471 0.53043387 0.16173357
0.67905775 0.46708672 0.04252753
0.3906765 0.83589872 0.05080143
0.16387347 0.77154073 0.15388343
0.54326803 0.79426542 0.11563188
0.43204671 0.47283138 0.1639243
0.0293811 0.64830791 0.04789836
0.54040728 0.49632484 0.20573436
0.53118943 0.65126799 0.25850143
0.13687533 0.94933462 0.19736154
0.61208039 0.14519309 0.1479064
0.56078176 0.3217097 0.13526093
0.54664516 0.08750526 0.08941233
0.74246115 0.83081381 0.31297509
0.68088888 0.93747486 0.01837548
0.77660572 0.19381565 0.09848315
0.37521659 0.39834294 0.23322336
0.59087688 0.67053285 0.32943582
0.37771362 0.77657806 0.11065976
0.11378411 0.49698666 0.16878745
0.55662073 0.80197207 0.03102739
0.58821568 0.0631913 0.27983927
0.17756167 0.19896676 0.27189403
0.3305743 0.13209949 0.32026404
0.57931237 0.75180064 0.19784537
0.09658237 1.03335758 0.07918965
0.08648218 0.45296941 0.03551324
0.7658007 0.90891569 0.0784927
0.45578233 0.83240152 0.24931378
0.9347156 0.18281888 0.1648543
0.89014551 0.02778356 0.335652
0.11424335 0.76749913 0.23041018
0.38288115 0.15222338 0.23582984
0.41867573 0.32994287 0.32279281
0.65033157 0.50704694 0.28359617
0.71900528 0.32288829 0.03712001
0.9708257 0.57774579 0.29726348
0.66146627 0.82909974 0.24385419
0.33271728 0.97771088 0.29831908
0.50748482 0.95928225 0.02708667
0.26918896 0.68702928 0.02562895
0.84357622 0.08310313 0.21672498
0.53067796 0.39830748 0.05006899
0.85061214 0.89953532 0.00433102
0.94229224 0.43014196 0.22055812
0.79100403 0.74457987 0.01836106
0.81012193 0.77622744 0.25314037
0.29561095 0.06485271 0.16856211
0.8221291 0.55483067 0.25208362
0.63713795 0.9409331 0.15639554
0.28111803 0.22441302 0.01522476
0.77440157 0.69275435 0.19400499
0.67872808 0.07278608 0.21421017
0.03708315 0.74943902 0.11295946
0.46398496 0.01752964 0.15083227
0.15565056 0.17786197 0.07179165
0.82433135 0.27864958 0.23497627
0.18870663 0.67500405 0.08331886
0.20767453 0.39315144 0.29047854
0.21229969 0.35075444 0.16499902
0.62125679 0.92532113 0.06887469
0.43910883 0.7800468 0.17068674
0.39191547 0.00700699 0.02452108
0.55384593 0.43582926 0.32593321
0.37574744 0.65970715 0.29545617
0.95531652 0.82010623 0.05432235
0.33942282 0.66774598 0.17502355
0.31940685 0.91665786 0.15292205
0.52504099 0.25627002 0.28049589
0.33124734 0.04372114 0.10237409
0.80173357 0.5300893 0.11193543
0.52163292 0.15799958 0.21251679
0.82591716 0.37626691 0.16397332
0.45541361 0.28966674 0.090963
0.05281791 0.68189154 0.17659237
0.76721075 0.95449881 0.26626267
0.80236607 0.26208183 0.31428539
0.55095005 0.95345086 0.21884855
0.17860988 0.02369331 0.31014409
0.02104994 0.92355275 0.32204744
