POSCAR file written by OVITO Basic 3.5.4
1
17.616934 0.0 0.0
0.0 17.616934 0.0
0.0 0.0 42.27
W Nb Hf Zr 
50 50 50 50 
Direct
0.60123724 0.87791246 0.10555139
0.07995547 0.15255101 0.14005666
0.75769001 0.93277782 0.07044224
0.04718776 0.51292592 0.18005616
0.53040266 0.0857868 0.08895423
0.48212767 0.45779064 0.05461185
0.92966366 0.3846409 0.3183407
0.8879742 0.06907594 0.19197826
0.93088078 0.62476867 0.3103606
0.50670803 0.97610128 0.13010764
0.67475969 0.56070185 0.15496965
0.47514713 0.00674931 0.19116729
0.89869195 0.70184606 0.07943328
0.36082771 0.61773586 0.28285986
0.82945329 0.64916706 0.24745832
0.48377544 0.18130028 0.01562403
0.22653647 0.06561305 0.27805469
0.54751176 0.12428022 0.165048
0.58751291 0.93295598 0.32094318
0.70490438 0.44633642 0.28222907
0.7957024 0.46351501 0.17408791
0.78106213 0.62931693 0.18097639
0.03891563 0.71826369 0.28090934
0.3649807 0.26314694 0.05032512
0.0517064 0.67661864 0.17942341
0.90493298 0.56895113 0.19267889
0.16595475 0.09318211 0.18488639
0.08404103 0.02877671 0.09364651
0.18256654 0.58072281 0.1873272
0.99172944 0.42398793 0.2636299
0.47831541 0.73439324 0.22797268
0.00608599 0.70142466 0.12305476
0.87393522 0.8833226 0.24802403
0.68247932 0.04759238 0.31380626
0.90580857 0.56743073 0.13041214
0.58185196 0.50120783 0.11162904
0.98278999 0.27724311 0.08475619
0.02076557 0.90686435 0.12049962
0.36075267 0.3921679 0.00628356
0.30567333 0.52026814 0.19157392
0.3044458 0.75234008 0.10480641
0.1825223 0.93601394 0.3184784
0.9967888 0.27425954 0.25342103
0.30886102 0.66784537 0.22546209
0.47640568 0.13734131 0.22419808
0.63332748 0.98498142 0.16796146
0.53468865 0.05390108 0.0162279
0.92315632 0.501185 0.01617319
0.47892019 0.32898378 0.03511883
0.05884635 0.19036706 0.31690458
0.65234351 0.97283024 0.04314086
1.9709e-04 0.37551174 0.1503674
0.87879574 0.37467554 0.05438586
0.61640579 0.65294546 0.20975857
0.10136104 0.99075979 0.1574156
0.9551872 0.94048733 0.19095216
0.68875736 0.06594463 0.12220999
0.56522346 0.78189552 0.03000711
0.25672093 0.9009822 0.2637897
0.64576972 0.18726514 0.09366525
0.32070309 0.38277641 0.1497688
0.05236515 0.89595336 0.01589285
0.27026391 0.23677103 0.09632608
0.57669443 0.24346037 0.05691288
0.95865029 0.75283468 0.2355553
0.75137681 0.77047521 0.22286311
0.27187485 0.64885086 0.01297154
0.1637468 0.57880563 0.25256845
0.26622787 0.8125335 0.21038259
0.09762406 0.33473587 0.31103305
0.3690578 0.71241975 0.16750936
0.68370104 0.68009162 0.26766544
0.11487138 0.4107933 0.22865509
0.21555424 0.92217577 0.17458138
0.98997635 0.74374819 0.00497426
0.56719589 0.34986272 0.20419263
0.74370867 0.09365591 0.1825335
0.52003086 0.69322902 0.16348226
0.4511143 0.89265424 0.00221479
0.342906 0.9289372 0.14031339
0.06189883 0.05836839 0.02429769
0.64401066 0.24566816 0.16626585
0.93466669 0.14602077 0.26457121
0.065576 0.87031192 0.26675967
0.43658951 0.67061478 0.32685396
0.74858648 0.49717391 0.11071684
0.0551504 0.31515774 0.03900376
0.59023488 0.2017234 0.22483577
0.70650977 0.74906266 0.01788146
0.99152821 0.12878224 0.07299458
0.79094237 0.19766897 0.16791838
0.16339043 0.40334126 0.1687579
0.44057295 0.63688058 0.11534812
0.6581012 0.38866973 0.07492396
0.46258372 0.58124882 0.21335386
0.17883486 0.7321704 0.15271861
0.84865266 0.52562487 0.07605655
0.858594 0.67763561 0.02161457
0.27847978 0.37118024 0.20794733
0.32731766 0.49144247 0.25112179
0.97741318 0.01258123 0.2419243
0.15205659 0.16681695 0.06810271
0.16084725 0.44043094 0.10416057
0.21604291 0.99909252 0.05712541
0.17434089 0.84980488 0.10920668
0.01522758 0.60640806 0.06016304
0.34076613 0.38975555 0.08510838
0.12573175 0.62754321 0.0061995
0.0544897 0.82309079 0.16921004
0.14246392 0.79341733 0.32330411
0.92326325 0.91051883 0.29954389
0.72684723 0.35301119 0.2130496
0.45739922 0.80681866 0.12532827
0.5506134 0.14009184 0.28506192
0.43662271 0.28029063 0.18025358
0.85587198 0.84503865 0.03359774
0.23796886 0.05916262 0.12114782
0.51211196 0.36252952 0.108302
0.68451005 0.14016527 0.02452045
0.14717877 0.74213499 0.22187034
0.67782837 0.3811889 0.13416725
0.25128403 0.4889403 0.31184499
0.21213351 0.80943078 0.05481431
0.16458629 0.67311776 0.07983027
0.73445159 0.53751361 0.23454387
0.61491859 0.48705122 0.20771425
0.4540897 0.20732936 0.11995218
0.68283921 0.63002169 0.06743932
0.76017618 0.58128709 0.30550441
0.13088952 0.21089584 0.26263542
0.36734545 0.10516082 0.07841371
0.66651261 0.79035807 0.15368734
0.41620627 0.86060041 0.18923567
0.76316845 0.47592583 0.0250537
0.78329545 0.67116225 0.11940772
0.73222864 0.19062704 0.26706878
0.33252805 0.88528311 0.07947121
0.48148811 0.93958771 0.06308969
0.13300136 0.47015956 0.03878603
0.28171757 0.04724944 0.21351581
0.5451104 0.54798055 0.26654313
0.55829608 0.74976009 0.28252772
0.92048717 0.24511468 0.00808609
0.29263434 0.22124474 0.23282557
0.40826869 0.81771326 0.28457699
0.47942227 0.45629168 0.16750159
0.21796778 0.32319707 0.02878854
0.59938306 0.58311242 0.00866907
0.08833377 0.28323027 0.19049452
0.94134998 0.40074575 0.212348
0.08060098 0.04202182 0.29351234
0.24556863 0.12711787 0.33195952
0.380624 0.10168023 0.15450875
0.43130261 0.28427446 0.28327404
0.81635433 0.34744695 0.27196201
0.70324975 0.79206288 0.08006832
0.30884406 0.51343721 0.04821527
0.45510828 0.48711756 0.3173407
0.60447401 0.40442151 0.00479684
0.85204494 0.75298566 0.29834512
0.03362699 0.51219219 0.30885854
0.09888184 0.59139448 0.12777504
0.75466841 0.30458143 0.3291814
0.86264139 0.78313226 0.18044474
0.58089858 0.27232403 0.31741465
0.29806763 0.60345441 0.13869287
0.46252641 0.99583679 0.2582977
0.02701082 0.79538316 0.07125167
0.25652471 0.3338325 0.29421377
0.75386333 0.95498586 0.2136827
0.01526158 0.4186433 0.08473407
0.60822481 0.86526239 0.21383827
0.3673853 0.12594907 0.28948399
0.85630035 0.3443293 0.13023618
0.58451551 0.68722224 0.10505349
0.9401421 0.03364591 0.12914419
0.86387628 0.23422466 0.22199811
0.48191699 0.59078515 0.06200872
0.13923863 0.28339621 0.10961069
0.8003633 0.04968313 0.25748183
0.23970249 0.22624549 0.17283333
0.31464702 0.84255648 0.01436319
0.64453799 0.04756999 0.25326421
0.87670696 0.50747055 0.26849689
0.73513269 0.88928533 0.28730014
0.8290872 0.03447017 0.00645702
0.45561218 0.41573861 0.23481142
0.61813343 0.35284686 0.26722799
0.35606521 0.00874305 0.00858449
0.95685828 0.9727751 0.05641705
0.88024497 0.83194834 0.1121064
0.24087439 0.7148059 0.28943127
0.02121115 0.58837938 0.23175897
0.80924189 0.24722485 0.07488719
0.81003296 0.08336958 0.07375482
0.13683338 0.94345099 0.21842989
0.92222053 0.19073491 0.13824135
0.4267171 0.73174113 0.06053862
0.01234051 0.13376546 0.20159939
0.74277747 0.92646128 0.1351579
