POSCAR file written by OVITO Basic 3.5.4
1
17.520744 0.0 0.0
0.0 17.520744 0.0
0.0 0.0 42.048
W Nb Hf Zr 
50 50 50 50 
Direct
0.66240942 -0.0514452 -0.00307637
0.24361151 0.99042315 0.15028143
0.83737874 0.06134741 0.01263995
0.06802884 0.42902231 0.26917539
0.51261062 0.11814884 0.15081254
0.11839976 0.33409331 0.14539167
0.75932841 0.30546039 0.08398019
0.3124117 0.9438338 0.24419693
0.82931016 0.79433911 0.27871395
0.40632393 0.78886179 0.30723898
0.60005018 0.5419538 0.14592874
0.4850649 0.05422704 0.26730278
0.94645475 0.49646854 0.06811568
0.45474127 0.38666031 0.10325227
0.50947787 0.53059341 0.03667084
0.58030959 0.74973103 -0.00286474
0.98463748 0.06710174 0.11432127
0.6645808 0.13292505 0.16025421
0.85949894 0.90389487 0.18197492
1.0315907 0.37451087 0.08453728
0.99971664 0.80516641 0.1055669
0.71774859 0.66266107 0.17818394
0.67538867 0.4508107 0.32732648
0.21117003 0.43116134 0.15466833
0.09825638 0.85480744 0.00263325
0.93870813 0.93431961 0.1219147
0.21121971 0.1587932 0.15384548
0.38113258 0.07818559 0.08252949
-0.03930935 0.71085241 0.21941487
1.05571773 0.2688951 0.26961797
-0.0540902 0.71322847 0.28894656
0.04429784 0.8492299 0.19179325
0.72415079 1.01875938 0.19259284
0.69271413 0.07016854 0.2463117
0.81081686 0.76088655 0.21241776
0.6302313 0.55246096 0.08630116
0.8847017 0.4010982 0.10421353
0.2419914 0.86258893 0.11740305
0.80752399 0.18183057 0.03970183
0.2727038 0.62933696 0.24858931
0.2387373 0.63454638 0.09375978
0.26715848 0.0700149 0.21579416
0.01121882 0.16056727 0.30225255
0.06823494 0.8547474 0.26835295
0.69662755 0.01335786 0.04350352
0.46479409 -0.16829003 0.02383707
0.97481576 0.99548131 0.18185034
1.01900686 1.01154599 0.27846337
0.24755682 0.18022577 0.07825524
0.65728618 0.56732375 0.27988058
0.61537406 0.46344763 0.00859395
0.88242072 0.45195709 0.19899254
1.04468019 0.43547089 0.02469017
0.48825694 0.29577159 0.23520514
0.84923658 -0.00500756 0.06993474
-0.13134005 0.84113142 0.06170788
0.78688335 0.94618998 0.13678893
0.25325557 0.718152 0.17706631
0.08545391 0.57837303 0.03130677
0.73607259 0.5146567 0.19554005
0.48088377 0.5680999 0.11136193
0.14860441 1.00036792 0.25484335
0.0718285 0.24212777 0.04349835
0.63485865 0.26816992 0.12002042
0.92427648 0.62372202 0.02945057
0.41454418 0.95280452 0.11585712
0.35354203 0.2755608 0.04306026
0.1681575 0.16098942 0.23726449
0.13193934 0.73383644 0.24370214
0.08774725 0.14670169 0.08937243
0.4422654 0.67665101 0.33252131
0.73498335 0.82917238 0.32923843
0.69877973 0.2933613 0.02878719
0.16140452 0.82510936 0.06970016
0.65519831 0.62319314 0.02950526
0.55038114 0.4161792 0.15315637
0.75870355 0.20107198 0.25628286
0.52548815 0.84708728 0.09131124
0.402807 0.74930655 0.19847244
0.56691468 0.11402482 0.21372604
0.81977293 0.11077522 0.09860324
0.47697474 0.18246018 0.06997495
0.16662998 0.09019346 0.03099143
1.0818445 0.93899818 0.32503451
0.02924399 0.49682829 0.32605871
0.49576912 0.84131493 0.1695158
0.11104741 0.03858965 0.17982422
0.78405135 0.33781203 0.22407753
0.75858399 0.69388514 0.07332583
0.89865896 0.58315344 0.20698492
0.59813621 0.56662258 0.21496296
0.0309266 0.18499464 0.15056201
0.12895676 0.49040349 0.08267485
0.50843099 0.67176783 0.16549574
0.51343585 0.51745101 0.26301523
0.36244484 0.11631934 0.14571848
0.8693434 0.73789139 0.01448379
0.93843746 0.75163011 0.16300212
0.55455793 0.53566401 0.32818646
0.78969581 0.4905089 0.2716177
0.16930257 0.57262234 0.14454205
0.16113809 0.15675255 0.30889473
0.2043793 0.30995292 0.25541688
0.02012726 0.30729564 0.32570717
0.41543142 1.0015379 0.20385437
0.21779089 0.95044278 0.00291523
0.33948468 0.27188513 0.11578313
0.27089846 0.29242665 0.186282
0.32283126 0.87708317 0.18170629
0.77597862 0.65996824 0.32506534
0.40881008 0.95830318 0.30805036
0.72370052 0.40810508 0.13506193
0.69204296 0.86880433 0.09677776
0.6484272 0.28440971 0.19180523
0.79627991 0.25120702 0.15023688
0.02583034 0.10804209 0.22724312
0.24342868 0.99427032 0.08014288
0.43449851 0.48261639 0.20969192
0.52140442 0.01150696 0.05495453
0.53123985 0.71301497 0.06101837
0.50420526 0.30975643 0.03931387
0.37933249 0.44259117 0.14885231
0.50051022 -0.06065385 -0.01843523
0.92758338 0.9194187 0.01284031
0.78072566 0.57765093 0.13190382
0.61233044 0.39000925 0.07271294
0.45999609 0.27642966 0.154391
0.79349231 0.77246491 0.12999608
0.67543086 0.5805931 0.36542675
0.24773011 0.45984805 0.23165647
0.32568701 0.08426571 0.28114965
0.68374058 0.8712752 0.17743937
0.56194247 0.85203105 0.29798587
0.21539175 0.72026366 0.01553766
0.91990684 0.68320718 0.09308183
0.74085814 0.32366751 0.30440819
0.36607335 -0.0479698 0.0395261
0.59400218 0.1257741 0.02279612
0.35412797 0.61662625 0.05161855
0.48667679 0.66624815 0.26039459
0.77102219 0.64439658 0.2379116
0.62707247 0.70082129 0.31440161
0.9274146 0.22843594 0.09548618
0.25830913 0.90525487 0.2963212
0.45096941 0.65237393 -0.00908463
0.28889848 0.64322227 0.31218213
-0.0875161 0.34687755 0.26690802
0.6513882 0.41043787 0.2368635
0.05800344 0.27952309 0.20571042
0.83592749 0.46094431 0.33108814
0.89295503 0.24298889 0.20904267
0.95324429 0.83761244 0.32512707
0.1353807 0.58368018 0.28001049
0.38413119 0.38115917 0.2587737
0.8557073 0.06113977 0.24431594
0.7132207 0.8473562 0.03004853
0.28421525 0.48546713 0.10129249
0.58683428 0.7340833 0.22033693
0.3346619 0.09331469 0.02932365
0.19086956 -0.08816449 0.20241126
0.19879401 0.32767582 0.07788771
0.1368753 0.58097807 0.20789653
0.60078491 0.212514 0.2594213
0.94822208 0.88227766 0.22893409
0.55250228 0.36746109 0.29993964
0.32243789 0.60094777 0.18240865
0.35194178 0.83216426 -0.01491406
0.05409006 -0.04432955 0.06433132
0.42400235 0.16889375 0.23262982
0.73216113 0.88814256 0.26057774
0.05663891 0.43441983 0.20308492
0.33251671 0.26750595 0.28678054
0.65661466 -0.01950215 0.3037475
0.75918345 0.49106138 0.05818135
0.62274373 0.7114869 0.12872973
0.86127817 0.10226673 0.16496213
3.1691e-04 0.52342077 0.14907551
0.38714244 0.709811 0.12303027
0.10192023 0.93940466 0.13321767
0.58555704 0.98169228 0.14044323
0.9360793 0.54267633 0.27236386
0.04163658 0.99734143 -0.01159405
0.86794345 0.95575386 0.29809462
0.88273453 0.19450032 0.28968961
0.90150729 0.3184266 0.03252788
0.95062601 0.11883177 0.04189834
0.3840972 0.51287894 0.29209603
0.41476235 0.42602714 0.00973601
0.15794259 0.38064751 0.31035054
0.34558228 0.77148702 0.06145108
0.46166867 0.85889634 0.23812861
0.13228923 0.77124326 0.31273683
0.03422293 0.75755145 0.03843093
0.68404184 0.12099586 0.08803029
0.09827254 0.66027692 0.08947722
0.28761469 0.78457468 0.25482841
0.95588905 0.34235426 0.150831
0.22912945 0.21274335 0.01809807
0.57915328 0.94957316 0.21776305
0.09638892 0.7613909 0.15358111
