POSCAR file written by OVITO Basic 3.5.4
1
17.520744 0.0 0.0
0.0 17.520744 0.0
0.0 0.0 42.048
W Nb Hf Zr 
50 50 50 50 
Direct
0.55244182 0.03523291 0.03455066
0.25971793 0.98578871 0.17127861
0.74759003 0.09229705 0.02858455
0.13429806 0.38225118 0.27597554
0.5454638 0.14673871 0.10541007
0.14740573 0.32841751 0.1163803
0.8200397 0.29171468 0.07252621
0.35694068 0.97161063 0.22461938
0.9072381 0.70523201 0.27797652
0.43917281 0.77558993 0.29806616
0.57150459 0.55560669 0.12549307
0.48425561 0.12631683 0.24442881
0.96416297 0.54172895 0.04209561
0.40493421 0.39649409 0.03959482
0.53974395 0.62829684 0.07012124
0.57253924 0.89448466 0.03278601
0.98474048 0.07102867 0.09623733
0.67856266 0.13762805 0.13543416
0.82836585 0.9088668 0.19645728
0.94909219 0.37549573 0.06318679
0.97796227 0.79214701 0.11952853
0.73523995 0.68207947 0.19430808
0.72825232 0.32793321 0.28798624
0.23847226 0.32025021 0.16315044
0.05389021 0.89251446 0.02084521
0.91155289 0.90020124 0.1301562
0.11856918 0.22171121 0.15982577
0.31566376 0.07412741 0.12183506
0.01589991 0.73127942 0.23660114
0.88353686 0.15623186 0.29182036
0.00372246 0.60484057 0.28573344
0.06949784 0.90459959 0.22519993
0.70770928 1.00026087 0.19228506
0.65295658 0.06630337 0.23430126
0.83379713 0.77897464 0.23450284
0.73226869 0.70371895 0.08644245
0.86649767 0.40320105 0.10604042
0.18523495 0.84561801 0.15369874
0.73199935 0.26148974 0.02081411
0.19665497 0.59350425 0.20515361
0.28496321 0.62647267 0.0929638
0.40262118 0.09302572 0.19508293
-0.02692137 0.14054352 0.3354366
0.14419317 0.81939012 0.27389364
0.67295639 0.05813992 0.07934979
0.54384553 -0.03915852 0.08021736
0.97008646 0.98278584 0.19909053
0.86711465 1.00140194 0.31244918
0.34205193 0.16835521 0.03416391
0.67727884 0.44580658 0.31363379
0.67581165 0.6071544 0.02287145
0.899261 0.48504172 0.16285388
0.92173608 0.43449423 0.00231553
0.45698065 0.45760885 0.22221026
0.83504883 -0.01124643 0.0623059
-0.02767736 0.92700028 0.07416436
0.78187749 1.00024725 0.1275329
0.25215245 0.70077905 0.16248167
0.08233011 0.51157384 0.00393367
0.73101661 0.51948675 0.19388513
0.42757238 0.4975671 0.10548103
0.14446175 0.95752182 0.29561489
0.08534765 0.33021391 0.00221546
0.5393365 0.39436438 0.1149132
0.89622189 0.67441459 0.02564392
0.37459276 0.9324351 0.08384348
0.24562693 0.29407031 0.02929636
0.17201184 0.15430797 0.25850425
0.1406408 0.67205918 0.27351658
0.16633499 0.08831941 0.12779268
0.43963575 0.64140321 0.31591146
0.76760028 0.75911453 0.30427192
0.77190258 0.37966823 0.01200892
0.11626356 0.82896506 0.09074488
0.70235199 0.75592828 0.02849706
0.56446465 0.43123712 0.17698305
0.75680228 0.15896426 0.20293604
0.51732092 0.87934207 0.13248723
0.38047791 0.73815058 0.1937714
0.57517991 0.1196158 0.18492877
0.80312441 0.15263615 0.09136082
0.46147852 0.28065396 0.08381954
0.22848627 0.14251584 0.00265496
1.01147396 0.96611422 0.31900547
-0.0259188 0.44808886 0.29112541
0.51838883 0.77337177 0.1870809
0.1010452 0.11478079 0.20646468
0.77112417 0.38502981 0.19316224
0.85646746 0.80610324 0.06981995
0.91227314 0.65798908 0.16282902
0.60067196 0.61069094 0.20703753
0.02285958 0.11940235 0.1487067
0.14524262 0.3850789 0.05981988
0.47629455 0.58437048 0.16636614
0.55327047 0.37394767 0.28883023
0.27412307 0.14941833 0.1699314
0.92107411 0.8242181 0.00865244
0.97433456 0.82026439 0.19432117
0.44624904 0.51938567 0.28361621
0.80748755 0.4403969 0.26704765
0.19468323 0.50706882 0.12697751
0.12483519 0.09731318 0.33160892
0.22580744 0.26152708 0.29938858
0.0662193 0.23961614 0.29191334
0.47867385 1.04013133 0.14332831
0.21926923 0.6785141 0.04500862
0.29269305 0.21945492 0.09864745
0.32189431 0.25380242 0.2128615
0.35557005 0.86856818 0.16034885
0.86318109 0.5738717 0.31524461
0.47571606 0.89742649 0.32071667
0.69503156 0.42387887 0.13400595
0.68499944 0.8740457 0.08948079
0.62004868 0.25856343 0.15965055
0.79661071 0.25835642 0.14429657
0.00545239 0.05523255 0.26601024
0.2284276 0.93489956 0.10290881
0.35211221 0.56424052 0.22321081
0.42052171 0.09769236 0.07236287
0.57822162 0.76410533 0.07805308
0.58268463 0.34644052 0.03686141
0.38273133 0.37277599 0.14296431
0.37205177 -0.02897382 0.02706076
0.89424329 0.96158323 0.00241966
0.78453588 0.58207417 0.13275686
0.6613141 0.5072138 0.07096255
0.44026538 0.19444404 0.14438724
0.80423497 0.77205471 0.13653305
0.70604307 0.62710245 0.35157296
0.2244951 0.44472538 0.22141676
0.33280585 0.08325865 0.27845992
0.67538057 0.8588413 0.16553145
0.617738 0.79090201 0.29637187
0.11165135 0.55114271 0.06143096
0.91714848 0.64660632 0.09909057
0.82329574 0.27009735 0.23744724
0.24375195 0.06874862 0.06573556
0.58659233 0.17454319 0.03452671
0.37871878 0.56153338 0.04060849
0.49267807 0.66821205 0.24964666
0.73582563 0.6151104 0.25528405
0.60052447 0.59981379 0.29244141
0.96972288 0.24306549 0.09629863
0.30754515 0.91438245 0.28104941
0.52950896 0.68999573 0.01918371
0.29679159 0.67942775 0.25850167
-0.06487842 0.39302166 0.23396481
0.6692951 0.42739892 0.24583525
0.10258661 0.30671776 0.21786006
0.89204863 0.32076924 0.30363027
0.96434582 0.17686669 0.22711641
0.87555811 0.84405722 0.33179988
0.06406354 0.49989545 0.23861243
0.33796212 0.41390736 0.27523049
0.84880993 0.0422214 0.24148564
0.7562484 0.88782431 0.01739398
0.28782087 0.44742687 0.06456557
0.64642335 0.77766622 0.23012107
0.43504265 0.26118608 0.00429479
0.18937901 0.01132593 0.2332122
0.10126213 0.22023639 0.06031952
0.05153001 0.59518095 0.17686923
0.6400565 0.2380169 0.23333704
0.91860132 0.8821981 0.26277278
0.60655894 0.30574285 0.33408498
0.33019427 0.5209145 0.16472871
0.43344386 0.79062176 0.05174213
0.10592833 0.02006777 0.06287693
0.48090893 0.27558447 0.21061789
0.74352087 0.91637522 0.26243505
0.04966372 0.42825804 0.17153074
0.51102836 0.23152626 0.28077878
0.56067543 -0.01742665 0.27088125
0.80528185 0.54838894 0.04867639
0.6059366 0.70062574 0.14433909
0.87487583 0.08454515 0.1668354
0.0233823 0.47208142 0.10605193
0.43554994 0.71886342 0.12403916
0.09235075 0.95246538 0.15711595
0.60701792 0.98955823 0.14144501
0.89330482 0.58166543 0.22667202
0.25162947 0.87993302 0.04529746
0.72095232 0.93159476 0.32842243
0.70108249 0.10929334 0.29081451
0.92363977 0.23805774 0.01882886
0.97374098 0.09229975 0.03736905
0.226498 0.54138764 0.28703117
0.5119581 0.48794027 0.0442282
0.09728453 0.42970852 0.32844313
0.26058551 0.78078411 0.10024859
0.47334221 0.85896693 0.2473462
0.04255473 0.78345405 0.31576745
0.03222649 0.74253837 0.05083852
0.6699557 0.26664188 0.09585255
0.09607183 0.68709487 0.12125712
0.25854713 0.85387748 0.22446758
0.95774095 0.299541 0.16780575
0.21880991 0.42055811 -0.00978189
0.52969358 0.96832543 0.20831319
0.14432826 0.75733291 0.20390072
