POSCAR file written by OVITO Basic 3.5.4
1
17.616934 0.0 0.0
0.0 17.616934 0.0
0.0 0.0 42.27
W Nb Hf Zr 
50 50 50 50 
Direct
0.58204311 0.86047416 0.04468274
0.15403019 0.1934641 0.15377171
0.78844414 0.85031487 0.05015305
0.23688057 0.42028312 0.24213847
0.51388321 -0.07073802 0.08396991
0.56864743 0.43398279 0.06516886
1.04710639 0.40965009 0.29365766
0.71684239 -0.02370382 0.15014783
0.824837 0.68179819 0.24962498
0.55376247 0.94890155 0.1521072
0.74994601 0.56570604 0.20253354
0.42376995 -0.03241394 0.19511674
0.95170128 0.5069434 0.10213588
0.42674677 0.62287044 0.28126284
0.78786637 0.70559323 0.17804125
0.441081 0.09542444 -0.0205037
0.04446782 0.01421744 0.27706696
0.57553164 0.08571936 0.16382233
0.37305619 0.90575376 0.28746548
0.6676804 0.59238499 0.25084088
0.70150608 0.63980305 0.12623082
0.65337568 0.79235845 0.15297011
0.09426481 0.70154337 0.27227864
0.47718296 0.30185697 0.08145803
-0.06137379 0.70425433 0.17545321
0.90628329 0.58200514 0.20707854
0.17793979 0.09541122 0.20509623
0.10655638 0.0570914 0.13479048
0.00895046 0.51589567 0.16397221
0.92448847 0.4491208 0.25877139
0.37161707 0.65122015 0.22713627
-0.03797922 0.68216026 0.10347013
0.83233976 0.87963465 0.25321937
0.76940707 0.03029223 0.25188014
0.8543459 0.58996376 0.13884221
0.55971958 0.60563586 0.10316353
0.92573201 0.21698098 0.0940201
-0.05755915 0.81059884 0.1301148
0.30455019 0.23269036 0.06462083
0.39612694 0.38925404 0.17377424
0.23646841 0.81884252 0.15104435
0.02012863 1.07202617 0.32605962
0.91441308 0.24815426 0.20440904
0.3071089 0.51167439 0.20858189
0.43282694 0.13240532 0.18114565
0.52742918 0.87612199 0.20117108
0.60019523 0.01477642 0.04881235
1.10828646 0.4735755 0.09885313
0.44997017 0.21609715 0.01703708
0.06471992 0.1894546 0.27724003
0.73871239 1.08275528 0.05915637
0.07407221 0.33177433 0.15369049
0.86534049 0.21137816 0.04160756
0.54330451 0.6088858 0.22170554
0.04818172 1.07818967 0.20460762
0.93644258 0.95135265 0.22816455
0.48450592 0.1754944 0.09104388
0.62549356 0.69983066 -0.00221161
0.20084044 0.86926784 0.26668108
0.69611821 0.18705535 0.15762771
0.52899335 0.21040022 0.14884796
0.13734695 0.98607249 0.07031981
0.36221382 0.21734616 0.13823138
0.611676 0.27900184 0.10527648
0.93986641 0.75925336 0.2321307
0.64842345 0.75005544 0.2084801
0.29512685 0.66344891 0.04206252
0.30747378 0.75673315 0.26143619
0.24229989 0.9675977 0.18106708
0.13712147 0.57070304 0.29215667
0.35606942 0.74469081 0.18038327
0.79275434 0.53533855 0.26787041
0.31084926 0.33043998 0.26912327
0.12897034 0.92268037 0.12984923
1.11898245 0.50427836 0.01999129
0.7058564 0.29216346 0.29003013
0.70396032 0.07755105 0.20413959
0.51324358 0.70646027 0.17553539
0.58388522 1.10962126 -0.00780807
0.30942352 1.0772753 0.16278346
0.08942207 -0.15584578 0.07236513
0.61225136 0.25218302 0.2103354
0.97404301 0.32704942 0.25134345
0.0407812 0.84730777 0.26813163
0.42083114 0.76919954 0.30397709
0.61080478 0.56838261 0.16150844
0.03620436 0.31101679 0.09266621
0.52787495 0.19919797 0.29588322
0.68601225 0.82979555 0.01077861
1.00619843 0.10549477 0.07212325
0.83769334 0.42726065 0.12928794
0.17543781 0.48297019 0.16513552
0.4060389 0.65614807 0.12171573
0.75352456 0.26593779 0.09922529
0.4275778 0.54972429 0.16361471
0.09547001 0.75997325 0.14115947
1.01619731 0.42615709 0.03673176
0.76167219 0.71197493 0.02655747
0.14953687 0.33659323 0.27099692
0.42677476 0.47703244 0.23369695
0.92760776 0.13471384 0.25261226
0.15114136 0.16523576 0.06696366
0.24199404 0.53341966 0.07775839
0.24666839 0.89750144 0.09492157
0.11903504 0.66181614 0.0403854
-0.01364193 0.56661229 0.0441341
0.32748762 0.43412637 0.12513669
0.24367615 0.96939136 0.00629129
0.04205015 0.83660471 0.19008183
0.0734481 0.899955 0.34835431
0.903096 0.98443251 0.30714063
0.78126839 0.22612514 0.22928542
0.37462382 0.88493406 0.14459776
0.46981859 0.0346804 0.30926717
0.30294761 0.18745949 0.21149845
0.94230345 0.76597811 0.04369031
0.28990923 0.10181837 0.0949474
0.68972083 0.4597239 0.11357467
0.85147574 -0.12841177 -0.00379202
0.19104198 0.75716479 0.20551612
0.7051027 0.37070827 0.16860566
0.27778574 0.59014603 0.30530833
0.22362219 0.80121149 0.0347834
0.21175037 0.71882088 0.09890421
0.70383172 0.41735187 0.23809691
0.55550963 0.4279345 0.19400538
0.45640567 0.08862734 0.04301572
0.6562057 0.54891384 0.04256579
0.9687787 0.58169948 0.27709088
0.09678371 0.26039213 0.20567256
0.30580635 0.1489402 0.01225124
0.69472357 0.92363191 0.08933297
0.3802917 0.87020789 0.22986037
0.62298167 0.24206862 0.03324367
0.8031608 0.73665814 0.10727991
0.80304656 0.15760825 0.30174796
0.36307191 0.78518971 0.07512498
0.74210538 1.00641429 0.01157848
0.36187379 0.3655635 0.0543951
0.31117561 0.0348343 0.25504857
0.56887452 0.65397131 0.29837509
0.49923003 0.76033305 0.2566499
1.01222109 0.2542588 0.03547752
0.19134075 0.1531052 0.27262161
0.30033725 0.85502738 0.33920342
0.51614623 0.42018736 0.12785548
0.14445599 0.36583378 0.05055652
0.72042824 0.38207862 0.0566156
0.09120266 0.46462836 0.22806921
0.8497617 0.41808128 0.20368342
-0.04445311 0.25731558 0.30961225
0.14207468 0.10078781 0.35320818
0.43518403 0.03741623 0.12842376
0.4031831 0.21469371 0.27717796
0.83040197 0.34466559 0.27969058
0.65907815 0.71177728 0.0703982
0.39396218 0.55121028 0.0729597
0.38361727 0.46436808 0.28880845
0.65003029 0.41369816 0.00209009
0.98484122 0.74169894 0.30954743
0.17656888 0.76289559 0.31670322
0.10170184 0.6162511 0.12333248
0.77682962 0.65614419 0.30771653
0.83641933 0.86191053 0.18523295
0.59008276 0.49469209 0.29087111
0.25189992 0.62749758 0.16257052
0.16271792 0.98369192 0.3112577
0.05860027 0.88120749 0.01422555
0.22642388 0.42747534 0.30646916
0.67868193 0.91685669 0.20595989
-0.11594693 0.38886855 0.04971574
0.55418219 0.92305277 0.26914627
0.31219713 0.0454783 0.33618769
0.80241393 0.56565367 0.085888
0.53850698 0.76730727 0.11505088
0.94998951 -0.02381817 0.14173402
0.64802813 0.11596902 0.27119152
0.49506694 0.38085167 0.00878116
0.21625234 0.28958189 0.114842
0.87403067 0.08346822 0.18644571
0.24176616 0.32969529 0.18587923
0.50090489 0.96376439 -0.00362053
0.49303666 0.05501287 0.23972851
1.07731186 0.64780079 0.19725915
0.7236833 0.79792517 0.27732426
0.89172859 0.0342212 0.02477653
0.46729054 0.28189639 0.21671227
0.51673421 0.34466818 0.26662976
0.36996657 -0.03232677 0.05398983
1.05888815 1.05030037 0.01675966
0.95280788 0.95792544 0.06806527
0.2425999 0.96835001 0.38706315
0.21268816 0.60494172 0.23417073
0.95507896 0.1712203 -0.01219243
0.83406644 0.09601258 0.10684319
0.14717085 0.97983583 0.23965231
0.84859848 0.26305201 0.15491599
0.51515344 0.69054267 0.04771904
-0.00553936 0.16462699 0.13846475
0.63311238 1.08381318 0.10260453
