POSCAR file written by OVITO Basic 3.5.4
1
17.616934 0.0 0.0
0.0 17.616934 0.0
0.0 0.0 42.27
W Nb Hf Zr 
50 50 50 50 
Direct
0.57054238 0.79857097 0.04556388
0.20336919 0.21622478 0.12308758
0.75639499 0.91846197 0.02968152
0.19864784 0.45239315 0.27814666
0.5149679 -0.08166468 0.06976206
0.56946238 0.41326541 0.02849404
1.05225742 0.41476392 0.29628522
0.70786145 -0.00556456 0.15926599
0.79339758 0.6843441 0.24419823
0.59029398 0.91994836 0.13820071
0.75578868 0.57084983 0.20486288
0.42100437 0.01302076 0.18264113
0.97396621 0.50878174 0.0963089
0.41663924 0.61174291 0.27312903
0.81423314 0.69559652 0.17229209
0.37350889 0.05838643 0.00645127
0.02068952 0.02784138 0.2870557
0.55817092 0.03022281 0.18285215
0.3821473 0.90053915 0.29415936
0.68016066 0.61953131 0.26431908
0.70088421 0.66331796 0.1434528
0.69239231 0.80419286 0.15487489
0.12631366 0.73884981 0.24379371
0.4319767 0.34832872 0.07191764
-0.04127489 0.70569675 0.15224609
0.91000294 0.59232847 0.21888324
0.21061211 0.12485939 0.1850853
0.14332787 0.09439461 0.1189804
-0.00523024 0.52989645 0.15837788
0.9451266 0.50534245 0.27816492
0.38188176 0.66233446 0.21499436
-0.08222042 0.64050833 0.0975319
0.79283461 0.83341266 0.23568533
0.7695927 -0.0229704 0.25796055
0.85332765 0.56281178 0.14421776
0.55746428 0.61672781 0.12261598
0.8802301 0.21562271 0.07070037
-0.05740339 0.85252325 0.13173758
0.32222247 0.26196066 0.09624278
0.41500778 0.4107945 0.18778492
0.2294547 0.83829503 0.16004029
-0.00885537 1.12180985 0.32296301
0.94919558 0.2324431 0.21377378
0.26903099 0.44440997 0.18897879
0.4873186 0.16019064 0.16905342
0.50996023 0.81611449 0.16845642
0.64306067 -0.02440167 0.03613621
1.09057083 0.44311041 0.10201992
0.43543042 0.20014219 0.03345487
0.08853977 0.16764653 0.26883649
0.75066545 1.04167004 0.07450017
-6.4742e-04 0.36024922 0.16764596
0.70113114 0.14726788 0.02369581
0.54147246 0.56958888 0.23341741
0.03427446 1.10074757 0.21325329
0.94438285 0.95208403 0.23580698
0.47434746 0.211135 0.10474881
0.69036491 0.69634374 0.01461294
0.2307421 0.85195988 0.23614877
0.69947478 0.20005543 0.16912689
0.56664991 0.29083042 0.17548021
0.11597842 1.01791643 0.0627077
0.34681871 0.26247005 0.17020273
0.6201437 0.30831924 0.11911771
0.92771132 0.7540067 0.20651628
0.66758486 0.71901766 0.21567228
0.32811302 0.61210103 0.03225928
0.32878967 0.73490133 0.26379738
0.28931368 1.00116444 0.18710025
0.08214141 0.56112501 0.28479882
0.33733929 0.73466787 0.14527886
0.8091906 0.48725432 0.26182127
0.26357577 0.34127081 0.30137128
0.18445642 0.97554825 0.14798052
1.21304049 0.46653981 0.02893628
0.65332655 0.23298368 0.26869086
0.69996476 0.06841039 0.2257911
0.53971499 0.69016081 0.17907839
0.56439167 1.14526705 0.01051446
0.3466056 1.12568817 0.14648628
0.11182738 -0.23678919 0.06342749
0.59101576 0.19086024 0.21917427
0.96159454 0.33361618 0.26052479
0.04660113 0.85716189 0.26471643
0.42784372 0.77470684 0.29736516
0.61929958 0.5291946 0.17563216
0.05315988 0.30460069 0.0952751
0.54490885 0.16031109 0.28429903
0.64370849 0.87347745 -0.0143839
0.97904421 0.11086055 0.07960261
0.86451472 0.41305343 0.14195277
0.12528105 0.49346617 0.15476614
0.41011009 0.6558381 0.10042847
0.75773543 0.22487915 0.0927389
0.44214626 0.56004632 0.17981983
0.11699223 0.77195819 0.12481923
1.04761122 0.42043452 0.05006093
0.77617548 0.77639533 0.047467
0.13583059 0.32332049 0.2627639
0.40293583 0.49515392 0.23628305
0.91311612 0.1423525 0.27388121
0.14500361 0.19822497 0.05652376
0.23769214 0.52160157 0.08654573
0.22867557 0.89624756 0.08614614
0.18060057 0.62104453 0.0371252
-0.0239819 0.62478696 0.04099027
0.36655156 0.48655648 0.12474205
0.23330191 1.03800236 0.02106666
0.0721407 0.82963201 0.19120647
0.05208039 0.91621938 0.32459711
0.86830775 0.96794888 0.30249376
0.78334231 0.25866732 0.22654406
0.38009284 0.90048407 0.13779981
0.51415224 -0.02690162 0.32036627
0.32438765 0.14380611 0.21345667
0.95653574 0.77606315 0.06296777
0.28058331 0.05621672 0.09939924
0.70009935 0.50344185 0.12459365
0.85257858 -0.16469948 -0.00560455
0.24296066 0.72435357 0.20203854
0.70096339 0.3801396 0.17474712
0.27844641 0.62227982 0.32488976
0.22881739 0.84159629 0.01759115
0.25298237 0.70415668 0.0820678
0.6888899 0.42427162 0.24646381
0.530295 0.37405884 0.23115312
0.44828882 0.07179749 0.06553036
0.61698197 0.52342071 0.05762551
1.00140329 0.68560571 0.26458026
0.09182812 0.2777214 0.2008086
0.28484057 0.23464895 0.02003444
0.67312629 0.89672031 0.09417072
0.38890575 0.84298914 0.20813626
0.56379278 0.25027579 0.06163961
0.80702489 0.76931864 0.11252202
0.72332364 0.12561201 0.31429581
0.39308126 0.78301288 0.06866009
0.72841881 1.01486032 -0.01185766
0.37845769 0.36903426 0.01587715
0.34362634 -0.02391988 0.25096367
0.57588418 0.72682484 0.28923819
0.49076875 0.73956528 0.23899838
0.99096088 0.23555796 0.0334369
0.24319636 0.17483659 0.26815966
0.22667897 0.85050485 0.31331276
0.53921959 0.46240194 0.13250843
0.20215677 0.34279257 0.06237292
0.71154944 0.38852851 0.0685636
0.0553274 0.46364544 0.22994177
0.88716236 0.42529083 0.21844148
0.06224264 0.26564009 0.32902597
0.14630618 0.13925547 0.33093904
0.44929759 0.01237481 0.12282445
0.38474148 0.18245804 0.31741236
0.82312375 0.33962097 0.28763315
0.68140676 0.69132797 0.07669434
0.41819901 0.50281563 0.0606573
0.33035587 0.49461092 0.30557104
0.6702919 0.339172 0.0010186
0.88901647 0.77271396 0.29036926
0.17347826 0.72169798 0.29671865
0.09799572 0.61415796 0.1046634
0.8374155 0.60983489 0.29924684
0.83399125 0.90999739 0.16591307
0.5405471 0.54021274 0.29974766
0.24110494 0.59601732 0.15327483
0.19912351 0.99910647 0.27131313
0.06404447 0.90475279 0.01880802
0.16108764 0.4173923 0.34117384
0.65704297 0.90396546 0.2074316
-0.10306869 0.37404013 0.0665612
0.53604462 0.89578212 0.25403534
0.31574276 0.01108469 0.31814822
0.78908902 0.5449845 0.07070322
0.54750935 0.76883848 0.1091189
0.98646001 -0.02224233 0.16519842
0.61425629 0.02577832 0.27581732
0.51479391 0.27687085 -0.00796405
0.2293424 0.35115764 0.14209676
0.84963317 0.06983555 0.19715418
0.24713002 0.30959507 0.22221942
0.51706814 0.95918902 0.00117919
0.47287742 0.09687314 0.22942295
1.07336775 0.65411317 0.19356875
0.67566745 0.85066582 0.27440013
0.92337942 -0.032521 0.02498377
0.39874088 0.28909724 0.23981912
0.50998771 0.32225981 0.29325469
0.37945754 -0.09967417 0.03227518
1.04487357 1.1101196 0.01077801
1.05000731 0.94552676 0.10451476
0.17383403 0.99298352 0.35625563
0.2416247 0.58212039 0.2431906
0.88356398 0.13774541 0.0218108
0.84698568 0.10673293 0.12040754
0.13340483 0.96841571 0.21269182
0.84984656 0.26051164 0.1573731
0.51469996 0.67651721 0.02859106
0.01675158 0.16005445 0.14957138
0.63511864 1.08439647 0.10614693
