POSCAR file written by OVITO Basic 3.5.4
1
17.563496 0.0 0.0
0.0 17.563496 0.0
0.0 0.0 42.15
W Nb Hf Zr 
50 50 50 50 
Direct
0.72720376 0.84863045 0.0837534
0.20361251 -0.00133027 0.03686769
0.75636802 0.09580987 0.07026301
0.98644156 0.35566829 0.23887661
0.57564337 0.03757658 0.09376617
0.40169309 0.55747645 0.01439044
0.84530385 0.23394006 0.05457511
0.29572527 0.05481364 0.10366177
0.84846475 0.44161606 0.28513059
0.43640472 0.85292732 0.28877803
0.46779939 0.78380202 0.15464625
0.15666733 0.14508256 0.27993038
1.06736284 0.59776052 0.29439835
0.25554023 0.34030452 0.05204239
0.57678765 0.34986338 0.09792792
0.54271987 -0.00516181 0.26036506
0.99405465 0.21160167 0.03632575
0.57782462 0.89478582 0.10209815
0.04314644 0.82714441 0.1454513
1.05746484 0.60089866 0.1211125
0.87214757 0.47449741 0.22006502
0.78742486 0.59355917 0.25501143
0.94541703 0.52965207 0.26924395
0.33943083 0.24615574 0.03405655
0.10456939 0.64380488 0.23692289
0.96790029 0.93791922 0.19775734
0.0853989 0.87218169 0.22224537
0.19742553 0.13378817 0.13520923
0.1888636 0.74755772 0.26308484
0.861666 0.26345175 0.28492087
0.27628792 0.97328762 0.1619216
0.91800086 0.79786526 0.19347278
0.781725 0.79601735 0.16585827
0.49407364 0.27120246 0.18616224
0.70725862 0.66383417 0.29978523
0.62210897 0.5608079 0.08524299
0.69079694 0.49135159 0.21012119
0.12100873 0.05048389 0.09160555
0.53412634 0.24203072 0.30515243
0.27578976 0.4398471 0.15506714
0.38309388 0.65074684 0.06024459
0.33991847 0.82554657 0.18681396
0.78455946 0.1506969 0.29290909
0.51587053 0.92622776 0.16248824
0.53903199 0.21625558 0.12180431
0.48377406 0.95678211 0.05332605
0.85444496 0.8931224 0.24850981
0.74230991 0.99165884 0.10810552
0.59818498 0.18180182 0.06697844
0.99508766 0.33723954 0.0857893
0.54354706 0.65391125 0.04009071
0.6648486 0.28145587 0.27618581
0.93641661 0.57512148 0.17114948
0.42762766 0.51327124 0.25291008
0.71325221 0.27280867 0.08012574
0.00674786 0.81610246 0.08540991
0.82003905 0.16832876 0.12075047
0.69532362 0.91586532 0.15017827
0.12045901 0.74149572 0.3140461
0.61976146 0.57288152 0.16368524
0.49682493 0.47710569 0.11966646
-0.03666826 0.92368222 0.28258735
0.20527723 0.87669862 0.00197625
0.43668789 0.31696427 0.08278078
0.6625504 0.64701337 0.0287764
0.692859 0.84363598 0.29350013
0.34493579 0.74908969 0.32093193
0.24576594 0.24624372 0.24275195
0.11001822 0.2225404 0.19915816
0.86134942 0.3151276 0.11797833
0.27844321 0.7727671 0.06208658
0.86453728 0.65833642 0.30300471
1.07216753 0.45427809 -0.00540582
0.10355143 0.10870384 0.030552
0.82562138 0.73428751 0.08433133
0.24903576 0.51727666 0.21952629
0.59945789 1.00984906 0.20374191
0.70592953 0.87009849 0.21798334
0.50483524 0.7697632 0.32543993
0.44204522 0.13551832 0.22827359
0.83422793 0.33833253 0.22814087
0.61261749 0.33287511 0.16227767
0.09478016 0.21707151 0.08350395
0.97679026 0.74486203 0.26200078
0.28363327 0.63596453 0.00605311
0.72283599 0.60906026 0.12006515
0.26526909 0.22808493 0.17429151
0.6412535 0.35695881 0.21981888
0.74833731 0.78889857 0.03009789
0.70507018 0.40755509 0.27810176
0.92611892 0.6375917 0.2266471
0.15815358 0.56341953 0.16529519
0.2981279 0.57968104 0.1103107
0.49965508 0.69532865 0.20756726
0.8746837 0.39598001 0.05790185
0.42816658 0.34830769 0.14518095
0.931854 0.68206487 0.11917637
0.11847582 0.76747804 0.04554046
0.09306233 0.08548431 0.33256291
0.1093117 0.30622939 0.2603716
0.18385653 0.83689449 0.16894082
0.2237819 0.00460672 0.32013314
0.94565493 0.09542855 0.31284297
0.84121517 -0.04845886 0.05959179
0.39473385 -0.05392968 0.11454125
0.96703282 0.65417957 0.06388088
0.24150004 0.1570748 0.05992384
0.08800659 0.61869899 0.00982095
0.93541345 0.81704137 0.03425993
0.0033963 0.474048 0.0575113
0.93417287 0.12559928 0.18481712
0.27530302 0.39751043 0.27299775
0.6570553 0.72971436 0.09833855
0.40842548 -0.03408943 0.2086595
0.51777869 0.06874937 0.15840828
0.82615259 0.81829877 0.3043361
0.4400509 0.1328572 0.07882027
0.61857899 0.77760066 0.17126045
0.34311402 0.17374954 0.29495034
0.48807 0.63600417 0.11800241
0.77136114 0.4091608 0.16886453
0.5790249 0.37063612 0.32405179
0.40131421 0.76472138 0.01351034
0.06695155 0.947343 0.04831892
0.78196937 0.62185144 0.18731514
0.52077549 0.47861568 0.20366272
0.37557796 0.14227872 0.1463876
0.8816852 0.8629695 0.11411575
0.88301528 0.54538424 0.01484405
0.26562165 0.11328066 0.22375616
0.18705578 0.25888994 0.30563991
0.81744082 0.95780028 0.17974618
0.54185383 0.85589671 0.23300353
0.16652416 0.45071732 0.08995732
0.18166177 0.37122462 0.2003751
0.7920006 0.17180537 0.23390871
0.36148014 1.11061698 0.01705463
0.61980754 0.1419186 0.27483703
0.19575499 0.62006283 0.05637364
0.45191631 0.80076379 0.0834476
0.76293039 0.54267987 0.31929136
0.57210707 0.80595126 0.03822837
0.76895245 0.2222828 0.17432185
0.23208839 0.21171735 -0.00647567
0.19675969 0.59649952 0.30506397
0.45127201 0.5975871 0.31831998
0.02146181 0.25289539 0.30245954
0.82263741 0.75095693 0.23896302
0.94498539 0.2994492 0.17924615
0.51992114 0.32546858 0.25239053
0.95536925 0.10010584 0.0686835
-0.03668239 0.81135548 0.33009868
0.33058627 0.4717432 0.07316863
0.40581651 0.33244693 0.3057581
0.60593236 0.17079143 0.2068312
0.65763729 0.12631266 0.13074156
0.51237935 0.26070191 0.02498721
0.55034641 0.67656222 0.28216524
0.78478577 0.61495004 0.05116472
0.22642681 0.95446849 0.23291095
0.21178818 0.45241009 0.0056896
0.13139282 0.73148234 0.11504514
0.72385202 0.18530332 0.01958658
0.06918408 0.70254134 0.1874595
0.73440974 0.41233975 0.02620108
0.38565325 0.5392316 0.18331013
0.47557559 0.10989173 0.29774812
0.32217112 0.8755927 0.32923272
0.59348317 0.517095 0.26924831
0.37315561 -0.00376653 0.28441861
0.06352651 0.42947222 0.30191816
0.52442804 0.96303371 0.32367476
0.36361911 0.34144405 0.21482686
0.85566897 0.52712167 0.11554366
0.32011299 0.72233688 0.13185991
0.12411507 1.01882186 0.18199469
-0.01495056 0.45257316 0.13953153
0.50953462 0.4635988 0.05807436
0.13018126 0.30801831 0.14175445
0.72118251 0.04601839 0.22763336
0.28073917 0.31492266 0.11670129
0.13267663 0.87760534 0.29058987
0.80856374 0.96552185 0.3055957
0.95118517 0.34190349 -0.00161865
0.88543586 0.02589271 0.23642427
0.6661369 -0.03757589 0.04018992
0.64504197 0.65828819 0.22322204
0.58305559 0.57142531 0.33235962
0.10910583 0.3098796 0.02807711
0.1870546 0.89745908 0.09598033
0.34653809 0.91969858 0.03874189
0.27045932 0.66803066 0.19670427
0.05026952 0.49199 0.21942326
0.72815488 0.43277012 0.10009166
0.97105432 0.98960716 0.12191344
0.37211419 0.66207585 0.25680883
0.05562892 0.1726962 0.13573347
0.33334241 0.81938623 0.25010628
0.05781499 0.03622652 0.26004256
0.96484372 0.19804901 0.24415414
