POSCAR file written by OVITO Basic 3.5.4
1
17.520744 0.0 0.0
0.0 17.520744 0.0
0.0 0.0 42.048
W Nb Hf Zr 
50 50 50 50 
Direct
0.60338849 0.04458261 0.01096478
0.2437792 0.97337598 0.17265695
0.80370826 0.08986211 0.01635433
0.17725533 0.28412053 0.24079525
0.54424512 0.12962775 0.12459352
0.15887886 0.36158654 0.09945369
0.77291703 0.36956728 0.08022232
0.37569362 0.96883595 0.23818514
0.88463026 0.68171275 0.26645303
0.41816133 0.77429682 0.32589852
0.54092121 0.52197587 0.13569766
0.47498736 0.13941707 0.22527546
0.92373323 0.63947135 0.01532976
0.33796701 0.41592279 0.00790262
0.53778303 0.5904355 0.07969673
0.58969587 0.88856232 0.02133996
0.98227447 0.06645238 0.09051432
0.69280797 0.13358992 0.12833042
0.81955922 0.88763118 0.17949154
0.93185276 0.41894424 0.07222506
0.99056685 0.77154994 0.12111202
0.73012769 0.68724155 0.18277137
0.73051232 0.39208508 0.28406533
0.20687015 0.31697017 0.18105744
0.11737925 0.83831054 0.02443938
0.91860378 0.88860649 0.13164581
0.09952521 0.27332687 0.13588796
0.32489973 0.07465801 0.12926317
0.0149383 0.71117193 0.24237072
0.89742351 0.10490067 0.3042739
0.00400627 0.58893627 0.29419594
0.08808005 0.91975886 0.20784749
0.71080387 0.98191983 0.18551791
0.66479558 0.0633722 0.23563628
0.8762688 0.69356757 0.19734958
0.69832265 0.69109774 0.08203024
0.84645331 0.4099023 0.12999189
0.19538884 0.8358568 0.1536729
0.69594765 0.22432144 0.04485395
0.20348652 0.57920855 0.20332644
0.28563213 0.63239652 0.11039113
0.35652748 0.07076693 0.19530231
0.06558979 0.06046117 0.31497633
0.10964791 0.84071553 0.25974336
0.67779827 0.06351019 0.07269857
0.54404157 0.01095927 0.06863828
0.95416665 0.98371965 0.18979211
0.85493457 0.96980649 0.30140604
0.37731215 0.27217692 0.05986993
0.67856687 0.51440704 0.30932774
0.66961312 0.59719038 0.04170048
0.90253001 0.41493163 0.1820899
0.95718735 0.47209537 0.01341779
0.46500227 0.47492811 0.23935062
0.83722204 0.04270121 0.084608
0.00688887 0.89888728 0.07512057
0.75092351 0.94504869 0.1221457
0.2946395 0.69490933 0.16820681
0.0896089 0.61261016 0.02571231
0.7872535 0.52881032 0.19559047
0.39210498 0.52573824 0.09505335
0.14347674 0.93360668 0.31169002
0.04556397 0.30265528 0.0311833
0.49553785 0.29404709 0.13339891
0.8089003 0.68851423 0.04485951
0.4161326 0.99257123 0.02086457
0.21578424 0.31099337 0.04025434
0.16955091 0.13495021 0.26484946
0.15444253 0.6435253 0.26941992
0.17288499 0.07631896 0.11687656
0.29220986 0.67207128 0.31394452
0.75397086 0.8397913 0.22463238
0.80276287 0.38846663 0.00860375
0.1700992 0.85793388 0.089187
0.69601327 0.76856351 0.02569126
0.52611017 0.41750029 0.18462051
0.7329672 0.17655581 0.21522003
0.50242323 0.85163969 0.10655167
0.41546848 0.70320094 0.20119097
0.57488537 0.09496025 0.18624983
0.8086533 0.20026499 0.09750058
0.47695422 0.39612207 0.07823912
0.14425561 0.17850479 0.00915883
0.99457043 0.91883969 0.3080864
0.01377683 0.43840215 0.29019405
0.5070076 0.7923035 0.17047592
0.12244044 0.05582818 0.18760621
0.76558185 0.31238332 0.23173311
0.84354687 0.83157116 0.0781166
0.93232065 0.57999277 0.16039565
0.65144664 0.54419339 0.19294114
0.00459208 0.15386911 0.14938222
0.10070919 0.44132745 0.04247949
0.51355034 0.59809077 0.20954916
0.5632093 0.42139459 0.29127314
0.22973005 0.16993642 0.18888817
0.90839696 0.81057268 0.01801096
0.98534054 0.80342835 0.17735833
0.40193251 0.52778828 0.29587353
0.82439971 0.46122035 0.25058671
0.19570681 0.50375456 0.14005214
0.2480731 0.05432463 0.32804272
0.30833709 0.23145846 0.32034825
0.04143925 0.21292166 0.27793516
0.44694468 0.99493748 0.13511346
0.19166256 0.71699446 0.04303208
0.25964969 0.23616098 0.10943009
0.31254381 0.2137704 0.25530971
0.37417382 0.8575536 0.16901183
0.84339005 0.53303492 0.30178502
0.5180372 0.9252457 0.3054917
0.67690474 0.40883136 0.15298776
0.63712627 0.88000232 0.08030819
0.61209553 0.2491105 0.17817809
0.78344756 0.25808063 0.16256088
0.01022613 0.02445743 0.25366008
0.31699973 0.96546704 0.08296982
0.30022746 0.58173329 0.24281597
0.41947225 0.12013717 0.07600307
0.55364645 0.7271421 0.06113577
0.6453914 0.41251811 0.01616237
0.33488813 0.36271057 0.15081925
0.46729541 0.1426326 0.00212925
0.95949638 0.98677474 0.02740251
0.77474767 0.58057916 0.13734597
0.64071977 0.4784714 0.08677835
0.39931139 0.19048283 0.15536373
0.8411569 0.75595611 0.13618502
0.75093472 0.64425242 0.32144729
0.27355587 0.41910121 0.2081435
0.39869684 0.08098074 0.28496226
0.68146372 0.82251799 0.15376887
0.61673576 0.78287494 0.29431583
0.10989273 0.58350283 0.09058048
0.89458084 0.61552155 0.08764604
0.74191117 0.10868994 0.28990859
0.26982978 0.11736274 0.05148919
0.54281425 0.19983591 0.06987619
0.37360844 0.64529175 0.03706981
0.43688267 0.67200321 0.27024437
0.75246817 0.62483162 0.25001307
0.58988768 0.59568417 0.27595894
0.95506847 0.27949691 0.09404682
0.33448744 0.92815578 0.30238705
0.54703707 0.65776205 0.00299936
0.21389537 0.80601764 0.29538533
0.01172428 0.34957078 0.23295508
0.64221323 0.43941659 0.23066821
0.06804024 0.18952614 0.20492733
0.89787775 0.32973728 0.29170551
0.90319896 0.18633364 0.2217882
0.8420611 0.81711167 0.29062509
0.13911952 0.46040958 0.25449081
0.32773218 0.3889038 0.27624525
0.84282696 0.00927437 0.23152073
0.79024738 0.928312 0.03176132
0.27605185 0.42455089 0.07843485
0.59075195 0.72441387 0.22393366
0.47366002 0.3094449 0.01751065
0.21591838 0.01308906 0.2376121
0.09196337 0.19801658 0.07656664
0.04767874 0.64140737 0.1798652
0.61324036 0.24452975 0.2521329
0.92783153 0.8554123 0.24060289
0.60237479 0.21963736 0.32694823
0.37046412 0.52767956 0.17279287
0.43730178 0.84079343 0.04638509
0.12129374 0.0335896 0.04974134
0.45556822 0.30911177 0.21537585
0.59425777 0.89602154 0.24180263
0.06246873 0.41071522 0.18385721
0.45398161 0.26726353 0.28536433
0.57279009 0.0690263 0.28151134
0.79678816 0.51868659 0.05323366
0.63117504 0.64902389 0.13386795
0.86233628 0.06794038 0.16388341
0.01707458 0.46150586 0.12309341
0.44868937 0.6532715 0.12891735
0.09730949 0.95685261 0.13588883
0.6020419 0.99023181 0.12688883
0.95877779 0.54736674 0.23502129
0.26827011 0.89632756 0.03127347
0.68373775 0.93435776 0.30152849
0.76646143 0.24922478 0.31135769
0.88241071 0.27864614 0.02969201
0.96255583 0.14748032 0.03650627
0.22168094 0.49925816 0.31787566
0.48099437 0.4982563 0.02218645
0.15089682 0.33267805 0.30655257
0.30587944 0.79793048 0.09893494
0.42515957 0.81855851 0.23715038
0.04791165 0.74744433 0.31377091
0.01450932 0.73601937 0.05816025
0.64109051 0.29446831 0.09926505
0.1387713 0.71011716 0.12564498
0.2595357 0.8711406 0.22952496
0.95184791 0.28845948 0.16180197
0.23540708 0.56011051 0.04117343
0.507523 0.9527331 0.1995743
0.17647052 0.74968439 0.21068996
