POSCAR file written by OVITO Basic 3.5.4
1
17.520744 0.0 0.0
0.0 17.520744 0.0
0.0 0.0 42.048
W Nb Hf Zr 
50 50 50 50 
Direct
0.63534611 -0.0327537 0.00503037
0.2887915 0.97722945 0.16014167
0.81270495 0.0645064 0.0089545
0.05180687 0.40963749 0.26865744
0.51937249 0.15957807 0.13262289
0.11627688 0.30097534 0.13314128
0.76904453 0.3017913 0.08325863
0.33839002 0.94018782 0.22630979
0.87218671 0.78757012 0.28646138
0.43679448 0.79620737 0.30172362
0.63026896 0.570929 0.15470968
0.48237577 0.0314737 0.24091397
0.9800558 0.49961848 0.07430948
0.45923417 0.38396857 0.09886414
0.5148154 0.48152717 0.06134361
0.5449105 0.74138736 -0.0110873
1.03079515 0.05410982 0.11059126
0.6647929 0.15377363 0.1458287
0.8379689 0.94661313 0.17640288
1.01091489 0.35405767 0.10372748
0.98270865 0.80833844 0.10306674
0.70372974 0.70586273 0.18129864
0.7094684 0.44833543 0.29770966
0.22669193 0.40959705 0.14623807
0.07511831 0.88558911 0.01533762
0.92501645 0.93722324 0.12253891
0.1923183 0.12452725 0.15073232
0.38623225 0.05759949 0.08809522
-0.03791668 0.72235683 0.2242481
1.02945323 0.26419449 0.28365125
-0.01471433 0.71762797 0.28145896
-0.02118951 0.84218959 0.16493171
0.68843018 1.04420715 0.18036915
0.66749733 0.05940654 0.24285582
0.84683843 0.79266714 0.19394037
0.62805889 0.55081962 0.09629086
0.86887379 0.40046688 0.10721187
0.32096222 0.8541336 0.11820889
0.79522289 0.18831302 0.03688103
0.28453145 0.59900973 0.26605315
0.2256383 0.64686164 0.10074673
0.28504949 0.09137631 0.19997317
0.01941661 0.12204704 0.31147367
0.11883305 0.82908907 0.27024499
0.71780588 0.03516948 0.04808871
0.47865353 -0.17621806 0.02746971
0.97476574 0.98223913 0.17933701
0.98276195 1.00742725 0.28154377
0.26214603 0.16660897 0.07482369
0.69551567 0.59304346 0.26933724
0.61800874 0.46280043 0.02063848
0.87056937 0.41473893 0.17180678
1.05892473 0.41817592 0.03750458
0.49776969 0.33260027 0.23037245
0.86791449 0.04668407 0.06446772
-0.16557307 0.87431827 0.0591515
0.76962187 0.97862002 0.12323857
0.23286477 0.67661039 0.18889705
0.19360117 0.54867925 0.04530612
0.70878081 0.5160898 0.19903139
0.5057002 0.53934818 0.12511267
0.15630419 1.05729478 0.27253939
-0.00482276 0.28193228 0.03840843
0.59380449 0.2910644 0.12836223
0.97393966 0.57886839 0.03021774
0.44023542 0.91947439 0.13275643
0.37617357 0.26916972 0.04303228
0.2431119 0.1895279 0.2445035
0.14061351 0.65384486 0.24752737
0.09803336 0.18635949 0.08984692
0.46488527 0.6878729 0.33947657
0.71361293 0.8419116 0.28903514
0.71475902 0.32200551 0.02737163
0.1220505 0.81720986 0.07159147
0.63900201 0.62674138 0.03117881
0.59279457 0.41184861 0.17826843
0.76105328 0.19824481 0.20809635
0.51767878 0.83899517 0.0977229
0.36494442 0.60699935 0.20842223
0.55072094 0.1398094 0.19446872
0.80438221 0.1463559 0.10299956
0.44430512 0.18474701 0.07982534
0.14139484 0.07399169 0.04773699
1.10018374 0.94001351 0.31846353
-0.00481011 0.46650295 0.31945973
0.51340415 0.83631633 0.17471036
0.14408026 0.06297938 0.20523825
0.79068066 0.34594246 0.21848381
0.7143182 0.70963142 0.0704096
0.86117436 0.62471334 0.18596268
0.58403824 0.58831749 0.23429119
0.04895905 0.13381435 0.16494088
0.13287765 0.47662673 0.09525262
0.55483281 0.68637222 0.18587004
0.49106459 0.47952813 0.2796001
0.33465909 0.11433695 0.13465407
0.78581907 0.64988388 0.01216682
0.97303968 0.69298904 0.14703369
0.51455064 0.56249399 0.3263895
0.81524079 0.50919836 0.25235225
0.13575543 0.58470461 0.14475617
0.1693877 0.20311093 0.29924977
0.21119976 0.34935303 0.2657899
-0.06662277 0.25371596 0.33122055
0.42674874 1.02131215 0.1870053
0.22464397 0.94629243 0.03901518
0.31972488 0.28920711 0.10915456
0.24967404 0.25672728 0.16677422
0.31132242 0.84154018 0.17976833
0.85668168 0.62965976 0.30210498
0.39997857 0.93057883 0.27778062
0.71996575 0.44578899 0.14083294
0.69714701 0.86287912 0.08600397
0.63866306 0.27887028 0.20232455
0.77244828 0.29023799 0.15461792
0.00685769 0.10328848 0.23872546
0.20326965 1.00838514 0.09851298
0.47091753 0.50440814 0.20248261
0.56818508 -0.01653564 0.06826424
0.52287426 0.67990813 0.07243375
0.54341906 0.29815061 0.04411468
0.33427117 0.39135338 0.19157965
0.48052816 -0.02011035 -0.00103662
0.9077938 0.94310626 0.01044615
0.79461856 0.59589335 0.13408699
0.66286659 0.40450034 0.07941699
0.46388916 0.31040423 0.1632538
0.83264783 0.78561779 0.12537347
0.6756931 0.58393387 0.33556129
0.21746694 0.5260418 0.20576883
0.3198159 0.06756935 0.27682245
0.69564236 0.88027671 0.1649525
0.55569635 0.88614223 0.28496864
0.16026225 0.71483343 0.02889323
0.89198713 0.67264737 0.08131972
0.75625241 0.3030959 0.27962116
0.3919751 -0.07879552 0.06069196
0.5830195 0.14119441 0.01783663
0.33077236 0.59430167 0.05472432
0.43708293 0.63837278 0.28074173
0.78540019 0.68855719 0.24595324
0.59129856 0.71542703 0.30374516
0.93849586 0.21556285 0.0960975
0.25306463 0.90092038 0.28749997
0.46310936 0.65398724 0.01182586
0.3042487 0.70294857 0.30954614
-0.09300538 0.38399476 0.27674954
0.63759951 0.42489196 0.24531729
0.09736706 0.22476588 0.2206583
0.82511121 0.40891748 0.33773007
0.93639238 0.25449462 0.2258109
0.96993182 0.84286679 0.32412775
0.1643638 0.52470509 0.28637135
0.33180827 0.42714416 0.25233071
0.8382495 0.0534984 0.24572214
0.65369615 0.8126702 0.02540062
0.29103411 0.47146452 0.0995958
0.6601894 0.76151622 0.23514048
0.37387538 0.10292578 0.01737165
0.18042822 -0.10385973 0.21474567
0.17824395 0.32782755 0.08044129
0.05940971 0.63507595 0.19369794
0.64799643 0.20351603 0.27600765
0.96390594 0.90013925 0.23390336
0.5899556 0.38214397 0.31428089
0.32033552 0.5686655 0.1476131
0.32539163 0.83250436 0.00603129
0.01667961 -0.04719595 0.06298051
0.39599236 0.22058798 0.21526979
0.75757664 0.91383192 0.23500845
0.06356181 0.41018943 0.16636016
0.47876221 0.2029967 0.27490132
0.70900001 0.02786271 0.29853557
0.76269937 0.53160369 0.05916893
0.61957886 0.72338467 0.12636089
0.84685965 0.09120282 0.16761774
-0.02846358 0.52448925 0.14098684
0.41258588 0.71696169 0.14050135
0.10361436 0.94041648 0.14719225
0.59225443 0.99198691 0.14095072
0.97947572 0.56344912 0.26060761
0.0917795 1.01020906 -0.00574592
0.83850296 0.93243946 0.30263677
0.8508447 0.19645779 0.27638475
0.86659641 0.38654655 0.0400324
0.95343559 0.14345405 0.0291123
0.35437077 0.50520585 0.31790348
0.34158587 0.42068136 0.04126232
0.12496316 0.34718761 0.32800437
0.35023795 0.76148812 0.06103262
0.48849068 0.75114122 0.23277414
0.10425647 0.75745007 0.32431008
-0.03047798 0.76083743 0.03026273
0.62346839 0.16502093 0.07726633
0.07131037 0.65393003 0.08597424
0.31691707 0.77051335 0.24300509
0.97278277 0.26293914 0.16250823
0.19978599 0.23526866 0.02487155
0.59430639 0.9508744 0.21165517
0.13752265 0.77018281 0.14966148
