POSCAR file written by OVITO Basic 3.5.4
1
17.616934 0.0 0.0
0.0 17.616934 0.0
0.0 0.0 42.27
W Nb Hf Zr 
50 50 50 50 
Direct
0.60703872 0.89718588 0.09656015
0.1221491 0.20364246 0.1367401
0.74716322 0.86840161 0.07291496
0.14794533 0.44084148 0.20670439
0.53503461 0.03628208 0.09036442
0.52739822 0.46514282 0.00565161
0.98161662 0.40767705 0.28826425
0.83379087 -0.01052615 0.164886
0.87925166 0.65335329 0.2885934
0.57819232 0.94875442 0.14832234
0.65537839 0.48998492 0.17216891
0.46649676 -0.05653942 0.20040204
0.95693559 0.5719589 0.05347281
0.46735837 0.57690277 0.29239963
0.80157213 0.79715191 0.23408856
0.46080492 0.21208037 0.02946361
0.11460772 0.08261595 0.27966024
0.54083609 0.10130996 0.16510202
0.43498495 0.9231965 0.25695204
0.68304659 0.52891778 0.28444541
0.78870981 0.53871907 0.14393766
0.73471372 0.6464691 0.18352329
0.03793774 0.72155971 0.3163978
0.44304602 0.3686827 0.10313517
-0.02314129 0.67678325 0.16967669
0.89074171 0.61918013 0.20916095
0.19559509 0.15110418 0.21926787
0.12173969 0.0546585 0.13123481
0.03326967 0.53233513 0.18260405
0.99382916 0.40333834 0.22283737
0.3998521 0.64608586 0.25042271
-0.00354385 0.69052423 0.09085381
0.87291907 0.8933138 0.26820424
0.80629734 0.01152976 0.28532351
0.93814 0.56793698 0.12353246
0.53899555 0.64523373 0.06262875
0.86889137 0.24137885 0.0881272
0.02986586 0.82610559 0.11185904
0.29429239 0.36279389 0.0623929
0.35641778 0.38047429 0.19262141
0.31578625 0.79325935 0.10808299
0.10727991 0.95699146 0.33265266
0.91212207 0.28683777 0.20341973
0.26612699 0.51135094 0.21062945
0.48291987 0.12233724 0.22532412
0.57002292 0.84334272 0.18555376
0.56549066 0.09732744 0.03555561
1.07911635 0.44382931 0.05191806
0.41015181 0.35693751 0.03362719
0.06629 0.2073301 0.30307279
0.72722015 1.15502567 0.06457481
0.0376873 0.44633116 0.12871844
0.83700981 0.27188566 0.02869664
0.55178248 0.61914081 0.22211076
0.06967153 1.09162244 0.19933799
0.93788088 0.96815684 0.22462105
0.60210564 0.1718056 0.12375899
0.52938248 0.7836992 0.02891763
0.30647831 0.86380321 0.23877276
0.77105678 0.24133039 0.13533905
0.48217579 0.27902528 0.15635858
0.16092502 0.96276884 0.03116258
0.3214738 0.29941884 0.11895237
0.54886088 0.3056009 0.05799536
0.95716084 0.72399943 0.23764771
0.64638046 0.75373043 0.21728923
0.26979437 0.61793477 0.01482776
0.25233441 0.63115388 0.25533028
0.30214033 0.89641273 0.18037461
0.11897781 0.46259993 0.28126772
0.28666985 0.75933142 0.18132072
0.76040638 0.63878372 0.25347562
0.28670085 0.35463283 0.25452519
0.14414919 0.89103829 0.14561237
1.05761125 0.51966383 0.00810104
0.64370138 0.31611441 0.2455274
0.75683873 0.11767046 0.16573393
0.55537762 0.68251868 0.16090643
0.46932559 1.05980169 -0.00104559
0.25505885 1.05077176 0.17392434
0.09416705 -0.05071772 0.08453687
0.60003562 0.23475584 0.19010258
0.93195558 0.23490606 0.27593309
0.07435514 0.88459612 0.28189964
0.29789553 0.68806485 0.30176848
0.64326244 0.57444425 0.11581132
0.00503653 0.25438419 0.06229211
0.62237637 0.14617022 0.24088189
0.66927607 0.77844335 0.03975153
0.98611386 0.10098843 0.08906894
0.74360333 0.41848042 0.1096536
0.17646316 0.46236612 0.13900149
0.41989649 0.67710825 0.10370912
0.69904843 0.30600886 0.06754387
0.40772016 0.62987648 0.17920235
0.16164769 0.75527417 0.14804268
0.95509971 0.42988608 0.01022785
0.79889288 0.63041969 0.02453283
0.1402744 0.31377865 0.25358865
0.40110002 0.4877446 0.22902038
0.94810209 0.07203737 0.29481029
0.12801713 0.15542457 0.07276555
0.22164613 0.51673427 0.07596798
0.26267874 0.987209 0.09431138
0.1593883 0.8058952 0.08479038
0.11009552 0.65262863 0.04028904
0.30293476 0.48041988 0.1356144
0.12057107 0.82434306 0.01976991
0.03042148 0.81881005 0.19290351
0.06910527 0.84270538 0.3588796
0.94674279 0.94325595 0.33011604
0.74648988 0.37124559 0.18533062
0.45056256 0.83960949 0.15366837
0.43448664 0.03368538 0.29763637
0.36237586 0.1920754 0.17782162
0.85938774 0.72879413 0.07742407
0.28154497 0.13348325 0.12369761
0.55949211 0.47800043 0.06784538
0.83736958 -0.1793543 0.02339129
0.16815786 0.79909295 0.2251932
0.58629519 0.36494299 0.11878335
0.29205829 0.52110066 0.29685288
0.27185631 0.82867722 0.04435427
0.27474516 0.68007582 0.07171988
0.72096631 0.51271753 0.21865092
0.52281386 0.42120689 0.18120005
0.4507081 0.17014069 0.10285259
0.62280507 0.60333984 0.01209765
0.84498104 0.51235072 0.26995223
0.03568699 0.22070188 0.22623325
0.29759086 0.20793063 0.05994336
0.70334878 0.83144103 0.16386158
0.44329816 0.76410901 0.21585399
0.65914589 0.21972005 0.00614784
0.84711936 0.68529504 0.14466284
0.79420002 0.15959349 0.30456014
0.43255646 0.93217525 0.08421732
0.54826986 0.9434846 0.02881406
0.3176987 0.45735297 0.01795424
0.31686569 0.03536776 0.24222288
0.53006764 0.50477306 0.33704811
0.56359361 0.67941236 0.2853264
0.9959399 0.14188433 0.02121373
0.25376529 0.20198691 0.26975916
0.42137343 0.77398685 0.2901643
0.4881837 0.54832107 0.13910907
0.16438582 0.33009048 0.02822207
0.71198294 0.42230648 0.00564201
0.02650898 0.33060045 0.16861886
0.91249187 0.47214045 0.17947543
0.02696403 0.08859623 0.36090188
0.18689021 0.12211418 0.33626674
0.41919845 0.03212174 0.14452286
0.45453533 0.23108044 0.27815364
0.85129852 0.37037547 0.25136723
0.70272124 0.69155707 0.07935386
0.38598544 0.53894332 0.06778788
0.39666805 0.38842999 0.30719271
0.46357794 0.31643478 -0.02523299
0.90017979 0.79081146 0.31227274
0.13691452 0.62756115 0.31419134
0.10122486 0.60228512 0.11694973
0.76154817 0.62804042 0.31707803
0.88163936 0.82808946 0.18445174
0.73100921 0.44395418 0.32198586
0.27555832 0.64584504 0.14096214
0.25043058 0.97572427 0.30583788
-0.01732086 0.77237907 0.03715573
0.2133461 0.33594971 0.31378201
0.75811142 0.9478066 0.22289412
-0.10202607 0.39529524 0.07029236
0.57061961 0.85468416 0.26481563
0.33798542 0.13847697 0.32249511
0.77598609 0.5299435 0.0721096
0.55683843 0.76332888 0.10891994
1.00262044 -0.0272318 0.16353234
0.77544381 0.21704906 0.23205537
0.41930422 0.540253 8.8447e-04
0.16437708 0.32714853 0.09409671
0.86530593 0.09271345 0.22451543
0.21964629 0.31033961 0.17330764
0.39602591 0.91082131 0.00988261
0.57707183 -0.01066656 0.24879789
1.00413761 0.55333877 0.28032082
0.7341514 0.80840018 0.2831707
0.84213931 0.04713797 0.04185061
0.46655651 0.30269282 0.22151099
0.53695795 0.43376866 0.26886491
0.41191464 0.05588834 0.05335217
1.00439246 0.92981097 0.04575415
0.88353592 0.91599497 0.11240149
0.19468199 0.81687708 0.30030341
0.08750902 0.63292837 0.21343684
0.8572573 0.17339023 -0.0195204
0.83353332 0.09127359 0.11683848
0.14920326 0.95493151 0.22622899
0.90280102 0.34693942 0.12963849
0.40134262 0.71063707 0.03948521
-0.06607962 0.17840942 0.16370543
0.68673721 1.00969852 0.11559935
