POSCAR file written by OVITO Basic 3.5.4
1
17.510057 0.0 0.0
0.0 17.510057 0.0
0.0 0.0 42.024
W Nb Hf Zr 
50 50 50 50 
Direct
0.79943147 0.04057429 0.29076179
0.23929129 0.9984168 0.23350181
0.70091824 0.1348334 0.27092789
-0.02107994 0.35760556 0.29692662
0.60723192 0.22538261 0.08907054
0.13577751 0.34128664 0.11812661
0.65304595 0.45165207 0.04194142
0.48025645 0.07303627 0.28055507
0.88433195 0.72835473 0.22906963
0.54730221 0.9017089 0.07896998
0.53527134 0.50482109 0.15427551
0.46233279 0.20719635 0.20871227
0.97906155 0.59126845 0.02137218
0.19127047 0.43395506 0.01685938
0.59985875 0.66795828 0.07758467
0.58485627 0.79447738 0.04573674
0.78645281 0.02289502 0.04446036
0.57598889 0.05731771 0.17956935
0.79867397 0.93477976 0.13970323
0.88161976 0.38490301 0.0582712
0.7615504 0.63822521 0.09537447
0.77252439 0.87946453 0.19473175
0.58799748 0.53687722 0.27077257
0.1637894 0.18963332 0.14462037
0.37753893 0.91208029 0.10599712
0.02664602 0.92051214 0.10429635
0.08982858 0.07393011 0.12357824
0.17264414 0.05966996 0.17977983
0.85525733 0.57506189 0.26035548
0.87833974 0.18841613 0.28759406
-0.01896149 0.53342625 0.28628514
0.23992506 0.85031711 0.24952119
0.72051726 0.08772604 0.15264055
0.72346747 0.02336687 0.22998846
0.88984217 0.60030067 0.19676476
0.74495178 0.73591342 0.04968704
0.85266238 0.17959089 0.15788797
0.25454377 0.6684088 0.18045643
0.54126815 0.36477799 0.05013941
0.15561223 0.73658045 0.21219555
0.22833581 0.64504714 0.11899826
0.42949339 0.06270555 0.21506334
-0.05942235 -0.01168174 0.33317858
0.13994378 0.84746409 0.31196984
0.76385428 0.14278365 0.08964902
0.6482534 0.09714038 0.04419078
0.08817832 0.84994 0.25615357
-0.03016208 0.8934457 0.29120382
0.46069585 0.29503804 0.01510259
0.54840552 0.47353239 0.00277724
0.40355806 0.73398755 0.3053014
0.66555196 0.41295816 0.15608673
-0.01097436 0.37966648 0.1139658
0.34314301 0.4193763 0.21372809
0.69945935 0.88999102 0.05377374
0.96164547 0.79985377 0.08381369
0.71025384 0.97881196 0.10679027
0.12053643 0.62150279 0.16466496
0.13244355 0.55187531 0.01673661
0.83348737 0.46669503 0.21312711
0.38110775 0.62006865 0.09672651
0.30676255 0.82461292 0.30293776
-0.01495645 0.28678077 0.05546291
0.40300321 0.45713427 0.10586822
0.89468825 0.68436601 0.0561856
0.30610638 0.07801425 0.04647051
0.12071592 0.29158647 0.023441
0.15825252 0.16090961 0.21600478
0.04217604 0.60925874 0.23351715
0.15518292 0.02085816 0.0717239
0.22392742 0.59891293 0.23288305
0.75567635 0.72664307 0.27456315
0.73010111 0.42658987 0.31390932
0.18661146 0.93245716 0.13290123
0.86723814 0.85263985 0.02855835
0.60205568 0.36109126 0.11036268
0.71811627 0.16136612 0.20950416
0.48978387 0.61673983 0.1314591
0.41089224 0.55102488 0.20044951
0.57462534 0.10816347 0.23918331
0.86703324 0.25232165 0.08822736
0.23391976 0.38461189 0.07538477
0.18871343 0.19309071 0.07259723
0.05045253 0.90352365 0.0473609
0.02078333 0.37335595 0.00559598
0.54627513 0.75352436 0.16885416
0.05693654 0.98272213 0.22337479
0.87586681 0.17537044 0.22011533
0.89283499 0.94053711 0.07177101
0.79429187 0.54416229 0.14759433
0.65270076 0.59764274 0.15841785
1.02481518 0.96157658 0.16607049
0.05706531 0.44853698 0.05684408
0.53700277 0.64250233 0.21233796
0.47245461 0.41484393 0.26264498
-0.02912883 0.27150641 0.24590186
0.13409897 0.79194151 0.07501731
0.90200733 0.83678876 0.14655541
0.28841749 0.48983048 0.26703147
0.6865461 0.44546149 0.24777599
0.11083398 0.30378357 0.18294408
0.41652536 0.03092166 -0.007787
0.31950834 0.35561707 0.28921822
-0.02448958 0.22378971 -0.00992539
0.44677536 0.09508437 0.13149563
0.31776378 0.73738847 0.06588257
0.49860492 0.14380278 0.03955163
0.2990573 0.26934312 0.21836455
0.33172558 0.96484491 0.17004035
0.85862747 0.40535247 0.27200807
0.65472726 1.02045781 0.30300023
0.74537148 0.46754992 0.09353948
0.57760633 0.82732133 0.30570026
0.42526275 0.29299261 0.07932644
0.75537077 0.26867191 0.13605725
0.13147397 -0.01023078 0.27926686
0.27747069 0.06760852 0.11740715
0.42944261 0.57240198 0.26999366
0.44174901 -0.00127472 0.06521339
0.63481949 0.79129764 0.11576418
0.57735808 0.39026868 0.30607104
0.26730337 0.36838507 0.15195748
0.57504671 0.95681372 0.01988118
1.03800277 0.11538594 0.04901601
0.57071785 0.51254807 0.08677612
0.37685506 0.45272342 0.03046718
0.3103872 0.14023253 0.18271583
0.79549149 0.82303764 0.09493759
0.88190189 0.70655047 0.30738076
0.15177371 0.47764051 0.19387742
0.33178619 0.12421306 0.2503873
0.64805027 0.91242416 0.17063855
0.4298562 0.8645748 0.03375763
0.12497012 0.48728041 0.11743252
0.90392947 0.52762548 0.07729657
0.91565759 0.0451513 0.25057945
0.1834991 0.10869263 0.010682
0.35566896 0.1894443 0.31661704
0.44780303 0.6476647 0.0380129
0.48429883 0.81285395 0.25287334
0.73599318 0.59794292 0.31007531
0.54576726 0.66437377 0.29232664
0.01605089 0.2226314 0.12441347
0.36325673 0.95617177 0.27492087
0.64134085 0.60389382 0.01598632
0.22094873 0.70810798 0.28578042
0.77531346 0.30210998 0.20341313
0.57281346 0.45301918 0.20877445
0.02810812 0.13323645 0.27442668
0.83157852 0.3262637 0.33492551
0.89929833 0.02675285 0.17847578
0.84386094 0.91021691 0.34017181
-0.00190713 0.44804844 0.2248769
0.18675989 0.35661655 0.24696703
0.91597175 0.88573633 0.21420504
0.91677065 1.02434466 0.0170938
0.32161821 0.27302227 0.03490261
0.70598387 0.5979414 0.22794554
0.41299967 0.47791421 0.31995285
0.35368648 0.82820966 0.2008103
0.29019949 0.23929087 0.11534026
0.91694308 0.68168965 0.1354942
0.59420818 0.20547889 0.17364677
1.01902863 0.71352411 0.27891315
0.60383342 0.27375714 0.2458942
0.29394361 0.53751221 0.15452855
0.46746299 0.76569607 0.09362812
0.25187158 0.8925485 0.06253833
0.45331671 0.34366402 0.16141435
0.67121696 0.79347651 0.23869756
0.94433148 0.33499044 0.18239706
0.43449383 0.24429748 0.26904311
0.58537105 0.19621478 0.31009391
0.87668809 0.50572041 0.32564514
0.77060984 0.73201369 0.16078536
0.91942097 0.06997945 0.11030462
0.85071163 0.39158801 0.13310368
0.41368275 0.70504628 0.1645758
0.15164269 0.88452696 0.18710805
0.57389687 0.05919652 0.09549458
0.97857284 0.50101699 0.15750311
0.30910224 0.58714219 0.31721877
0.82375562 0.87513473 0.26789517
0.73404205 0.29495374 0.28205647
0.76776482 0.16151802 0.33854416
0.86304839 0.16768013 0.03123978
0.10804208 0.47052653 0.27474914
0.78630031 0.57015425 0.02993989
0.18259842 0.18418757 0.27832984
0.28462112 0.80002957 0.13209453
0.50334209 0.92034372 0.14380514
0.0333252 0.72052493 0.02690293
0.06232866 0.61427139 0.07920308
0.70985311 0.28493545 0.05002724
0.10640734 0.76723126 0.13692661
0.34598462 0.71074167 0.24283883
0.02276114 0.13312337 0.19107686
0.25283343 0.55068528 0.06137941
0.53650256 0.96030611 0.22398154
1.01353633 0.78051624 0.19746876
