POSCAR file written by OVITO Basic 3.5.4
1
17.520744 0.0 0.0
0.0 17.520744 0.0
0.0 0.0 42.048
W Nb Hf Zr 
50 50 50 50 
Direct
0.61476665 -0.04051357 0.01619477
0.23390085 1.02783711 0.14373889
0.79134198 0.01759566 0.01795366
0.11588251 0.38901772 0.25715205
0.52213304 0.11911096 0.11615642
0.12191479 0.3915938 0.131567
0.76930345 0.28188765 0.0877713
0.31010322 0.95929526 0.25226194
0.84040467 0.76174316 0.27549932
0.38063506 0.8184638 0.30461673
0.65451627 0.54609416 0.14577016
0.47175287 0.0382947 0.25517648
0.98051451 0.54090984 0.0524424
0.46478986 0.37131252 0.0939421
0.5391912 0.52742651 0.04899286
0.60261178 0.81649079 0.00585922
0.95695791 0.04430387 0.11369116
0.66316876 0.12789241 0.16278523
0.81891879 0.91054441 0.18416421
1.01010964 0.39618001 0.08185662
1.06521064 0.8022262 0.10548209
0.70877633 0.66883611 0.18351065
0.70055343 0.39156062 0.32039709
0.25906589 0.40636322 0.16666882
0.04073539 0.8660249 0.00579823
0.92265421 0.91096644 0.13722143
0.1592459 0.23714527 0.14471429
0.36106515 0.08748923 0.1043582
-0.04196322 0.73555883 0.2241259
1.02813582 0.25126952 0.26058055
0.00491835 0.71742493 0.2892259
0.0226931 0.88920263 0.20565443
0.6973133 1.01776304 0.19758415
0.65503509 0.05934466 0.25768368
0.81754963 0.76413608 0.20113217
0.64923453 0.57262298 0.07532221
0.88525801 0.38449416 0.10409704
0.23566016 0.80278113 0.11671526
0.7854723 0.14051645 0.04348146
0.30578267 0.60692282 0.22609053
0.26788478 0.67085949 0.09488176
0.30103985 0.03071521 0.2041561
0.00478361 0.11920005 0.30572687
0.05583409 0.87283185 0.26963396
0.71793926 0.0117581 0.071237
0.50972252 -0.13703609 0.05131315
0.95615143 1.01768753 0.18112307
0.91177674 1.01145249 0.30328764
0.25910563 0.1489248 0.0662378
0.66171431 0.51479022 0.30396666
0.67522954 0.48497686 0.01434663
0.89760291 0.46019382 0.18087089
1.03564358 0.42833316 0.01554732
0.49706159 0.36301108 0.23138525
0.83250487 -0.06804417 0.0837306
-0.08726445 0.79992196 0.0783025
0.75193938 0.97633023 0.13656503
0.25467548 0.70361999 0.16835484
0.10547456 0.56578097 0.03022096
0.73549513 0.50687442 0.20527973
0.47979861 0.53319866 0.09983081
0.14453312 0.9956423 0.25383495
0.04694413 0.28266571 0.03084859
0.60446232 0.27282627 0.11328896
0.82827522 0.55748746 0.01950594
0.38287167 0.94382484 0.11093551
0.33772842 0.30613348 0.06262761
0.23025093 0.17184732 0.21288244
0.10337044 0.71440178 0.24677908
0.13332043 0.11073979 0.09751255
0.45950894 0.69746396 0.32487368
0.71899128 0.81014494 0.30353678
0.69278437 0.3370398 0.0452544
0.14128078 0.86657548 0.05102615
0.66403268 0.67851573 0.01363249
0.53527569 0.43383981 0.17434589
0.7561357 0.1894561 0.21846283
0.48154514 0.84579376 0.11352478
0.4015867 0.6826531 0.20111283
0.55930277 0.09990928 0.21173775
0.82385865 0.1044031 0.10971792
0.46901608 0.21602003 0.07666418
0.13799564 0.04474569 0.04004894
1.08728002 0.9979315 0.31049419
0.02778726 0.53572191 0.28639188
0.53842419 0.78273136 0.18171948
0.11887818 0.05874357 0.18641887
0.77743557 0.36178739 0.20962168
0.73725647 0.71161489 0.06803676
0.87242591 0.61559155 0.18529281
0.58785999 0.56569758 0.23416649
0.03334585 0.16378368 0.16189011
0.13083889 0.46953743 0.0771449
0.53525899 0.59404314 0.16793909
0.51676975 0.48856477 0.2729628
0.3194549 0.14231122 0.1583427
0.81292834 0.71660048 0.01284136
0.95264975 0.75311364 0.15276664
0.52873776 0.57864413 0.327616
0.79714353 0.46587538 0.25536022
0.17347903 0.55447977 0.14953934
0.1514611 0.17408249 0.28643117
0.24816632 0.29978955 0.26175878
0.08549911 0.31786342 0.31037429
0.4433632 1.04180087 0.18116617
0.23204207 0.90236127 0.00682445
0.32155846 0.28518555 0.12374632
0.30901257 0.30090611 0.19797858
0.37457035 0.86749141 0.17693334
0.8479805 0.64687943 0.30775468
0.39766861 0.96790077 0.30411527
0.72169553 0.40367201 0.14365269
0.63861473 0.83388817 0.09333453
0.62681455 0.3060938 0.19463289
0.78063974 0.25221113 0.15121613
0.03396632 0.11362858 0.23267759
0.24040382 0.97600126 0.08645797
0.43679395 0.53647134 0.21335035
0.50331897 0.00801228 0.07457313
0.5414887 0.7120312 0.06534804
0.52061358 0.32428025 0.04046515
0.4090716 0.38123468 0.1547976
0.48629594 -0.07201225 -0.00755829
0.90202292 0.90486562 0.02028376
0.79727884 0.55613323 0.12584633
0.61633965 0.42246403 0.08963567
0.50701549 0.2250632 0.16173373
0.78566806 0.76569897 0.1277142
0.69259623 0.60131304 0.35115837
0.23972764 0.47107883 0.2221275
0.28562989 0.08824944 0.27943417
0.66729678 0.86778208 0.17221605
0.52136826 0.83281758 0.29626434
0.18129015 0.70402598 0.04051093
0.9263512 0.642916 0.09988838
0.77459395 0.30513208 0.2697905
0.36637816 -0.02665732 0.03527951
0.64735387 0.18016809 0.02335301
0.37446759 0.64078418 0.05658909
0.44898091 0.66467525 0.26440262
0.74053878 0.63153392 0.24934765
0.61270541 0.67761864 0.29368544
0.9979571 0.19431803 0.09767278
0.2437228 0.87161739 0.28824626
0.5323173 0.66728976 -0.0110467
0.28443975 0.69460793 0.29387929
-0.0547481 0.41250887 0.2491457
0.64476648 0.412799 0.25102814
0.11977998 0.299109 0.20781958
0.83351294 0.46573713 0.32006238
0.93172001 0.27773779 0.21907673
0.95840499 0.85323083 0.32082993
0.13715588 0.57322319 0.257964
0.38447506 0.37560738 0.28965765
0.86028594 0.03710891 0.23971665
0.75497376 0.86454521 0.03316172
0.26846316 0.43212684 0.10608713
0.60427306 0.73850178 0.2279079
0.41802106 0.11195103 0.02813577
0.20477134 -0.09003905 0.19064887
0.14281682 0.27791511 0.08136733
0.04040703 0.61738374 0.17491946
0.59096943 0.22102258 0.25661999
0.8908025 0.88379711 0.25524586
0.56246401 0.33132484 0.31786184
0.35076602 0.56524946 0.14127848
0.386445 0.79033894 -0.00594026
0.01779764 -0.06081297 0.07254951
0.40847364 0.16269865 0.23196106
0.7272207 0.87872046 0.23578025
0.05386546 0.4711867 0.19735441
0.32186625 0.24809924 0.30860391
0.59707874 -0.00712817 0.30237604
0.81509596 0.46044515 0.06375497
0.60276897 0.70679175 0.13038265
0.84275381 0.10595418 0.17433767
0.01047272 0.51326148 0.12047834
0.40018682 0.71365626 0.12276376
0.08023352 0.95077824 0.1382465
0.55612617 0.95922922 0.1393078
0.90728258 0.59948075 0.24680869
0.03763146 1.03148049 -0.0068143
0.76720574 1.02172789 0.29994768
0.86410024 0.17950971 0.29157721
0.90290643 0.3140288 0.04308894
0.9479302 0.06968076 0.04492337
0.35612148 0.54294221 0.28804346
0.40531936 0.44516533 0.03775801
0.21767748 0.45630612 0.30844953
0.33982522 0.81562432 0.06352882
0.42247428 0.84013674 0.24833535
0.12573072 0.77577105 0.32231241
0.00891979 0.71989565 0.04047846
0.6644974 0.14157841 0.09230926
0.08259128 0.64957565 0.10179469
0.25129363 0.78134368 0.23432826
0.96583699 0.3379522 0.15537993
0.19684312 0.33856452 0.02113921
0.54477688 0.93032762 0.22539961
0.11354185 0.7786584 0.18542247
