POSCAR file written by OVITO Basic 3.5.4
1
17.520744 0.0 0.0
0.0 17.520744 0.0
0.0 0.0 42.048
W Nb Hf Zr 
50 50 50 50 
Direct
0.57752165 5.8788e-04 0.02311963
0.237287 0.97839179 0.18143175
0.80380577 0.09322283 0.01689988
0.19518931 0.33176843 0.2544136
0.55987666 0.16871147 0.11396956
0.13089443 0.340636 0.11687384
0.84469918 0.30356116 0.07634133
0.40258812 0.96342253 0.24451769
0.9083046 0.7244253 0.29855278
0.43157154 0.77501502 0.31108809
0.54667217 0.53988543 0.1362508
0.5138676 0.15909936 0.23144949
0.97185966 0.53992625 0.05699902
0.35728546 0.36684142 0.01903564
0.53949163 0.58154217 0.08012257
0.55559791 0.8439759 0.02373445
0.98416915 0.05414255 0.08596258
0.71357174 0.14977624 0.1289744
0.84548942 0.88590392 0.19104839
0.91808695 0.40035781 0.04192546
1.00050631 0.80923794 0.11886962
0.74853212 0.70436728 0.19450607
0.72282875 0.33592554 0.28974866
0.25424801 0.31723643 0.16161165
0.06058854 0.88158813 0.01659437
0.94160575 0.94188118 0.12820592
0.11947716 0.22502902 0.15258064
0.30475815 0.08287705 0.14336213
0.01356564 0.70983455 0.25176402
0.89700684 0.15066837 0.29553118
0.02485936 0.59109161 0.29861227
0.11783864 0.90396453 0.20875358
0.69127963 1.02295189 0.18103122
0.65238951 0.07330685 0.2389992
0.87910475 0.73182735 0.21980441
0.76949571 0.71674074 0.06887025
0.79919859 0.443198 0.10866348
0.19180583 0.80028447 0.15133016
0.74913246 0.24898286 0.02462641
0.22135324 0.57863964 0.18843108
0.27877917 0.57620852 0.09370539
0.36946267 0.0849399 0.20458763
0.00637655 0.06624494 0.32021033
0.11371245 0.82578205 0.25529992
0.66295304 0.04322712 0.06321327
0.49422563 -0.03851978 0.07967991
0.96114936 0.96190499 0.19095939
0.84349466 1.01250853 0.29475653
0.39005366 0.22975866 0.02762558
0.70880465 0.50276836 0.3006978
0.66742714 0.58775809 0.04323681
0.8801104 0.43254687 0.18156781
0.92933956 0.4373093 -0.01288993
0.46014702 0.51343046 0.23947418
0.79177267 -0.0168452 0.06221225
-0.02751235 0.91538022 0.0611977
0.80528822 0.9628574 0.13186101
0.26833386 0.66206768 0.14126125
0.0826504 0.51011689 0.01559424
0.76118446 0.53724691 0.20712078
0.42616711 0.49427118 0.07367341
0.1141731 0.9319742 0.30810987
0.02152006 0.29010464 0.02077848
0.54332506 0.33994952 0.11349446
0.8884076 0.6657973 0.0277272
0.3481572 0.99833653 0.05227649
0.21718499 0.29168111 0.0469744
0.18375674 0.16446937 0.25706596
0.14243111 0.65679123 0.27638544
0.15774634 0.07890463 0.12503007
0.36976074 0.63352962 0.32106309
0.78061682 0.75573196 0.27539228
0.76770132 0.41518219 0.0142168
0.13356155 0.83381002 0.08687227
0.6823095 0.75675489 0.02151776
0.54677494 0.46467168 0.1854452
0.72813473 0.17142329 0.19231071
0.50961281 0.8661881 0.1265911
0.33795249 0.70539825 0.20335319
0.56247234 0.12008309 0.17427969
0.84390472 0.15528163 0.08187416
0.47441884 0.33101387 0.0634912
0.17512435 0.19506326 0.00827712
0.97952092 0.92196373 0.3222869
0.02071412 0.41734734 0.29075972
0.51266857 0.78373291 0.17231079
0.11203567 0.08066945 0.20199331
0.75339028 0.32765624 0.21449608
0.86164242 0.83839054 0.07482795
0.87160021 0.58592117 0.16591811
0.63114832 0.58792402 0.18924713
-0.00123083 0.11758762 0.14265411
0.08400953 0.38795617 0.06157627
0.48947634 0.64275317 0.18538005
0.536291 0.41229809 0.28735093
0.24395318 0.1587315 0.18206071
0.9217159 0.81582387 0.0046306
1.00535267 0.80361119 0.18121758
0.39898292 0.50356996 0.30279659
0.82248205 0.4496042 0.26237503
0.17624851 0.48040796 0.12797758
0.17596477 0.06657752 0.31558461
0.27148652 0.27093392 0.30310244
0.023048 0.23471318 0.27216679
0.43332614 1.02544373 0.13970766
0.20732945 0.64834789 0.03531602
0.28539649 0.20906817 0.11264484
0.31077173 0.24189033 0.22912025
0.34575229 0.88768778 0.16632626
0.84539646 0.57961442 0.3111793
0.52150922 0.88527434 0.33080351
0.68893686 0.44530228 0.16414931
0.68626572 0.84958775 0.08125541
0.60422253 0.29060576 0.16360421
0.80000467 0.29347144 0.1418701
0.01072487 0.02701798 0.26333332
0.24922758 0.9527071 0.10483584
0.26215717 0.59170715 0.25252702
0.43861268 0.13671169 0.07856908
0.54119048 0.74063951 0.07368049
0.60875447 0.40661212 0.02608385
0.42672011 0.38175448 0.15650475
0.44963079 0.10875986 0.00805496
0.90106302 0.97233214 0.00869229
0.74066201 0.60888964 0.13289417
0.64295833 0.46625848 0.086231
0.44575437 0.21681362 0.15610711
0.83567796 0.78307497 0.14438408
0.67402561 0.64422633 0.32710572
0.30740929 0.4145992 0.20845862
0.33899277 0.08519105 0.27773712
0.66965461 0.85049507 0.17410881
0.60001293 0.77674797 0.29141364
0.09193293 0.55944951 0.08174907
0.93681738 0.64835594 0.10757921
0.76119669 0.18182935 0.26953487
0.27830475 0.12328089 0.05846087
0.5851959 0.18892721 0.04411866
0.37398149 0.64996621 0.05900618
0.45992229 0.67721681 0.25240204
0.73897263 0.62885719 0.25785631
0.5596347 0.56466721 0.28834307
0.97957749 0.29163283 0.09502978
0.30537987 0.91901993 0.31009959
0.50938734 0.72167504 0.0070694
0.31348758 0.73029635 0.28307686
-0.04249028 0.3858449 0.2381627
0.63752031 0.44223165 0.23669172
0.0865285 0.23562039 0.21181306
0.86030309 0.30637793 0.29343349
0.92873143 0.16166959 0.21333766
0.82407251 0.84651368 0.33583137
0.14391903 0.49280923 0.2526487
0.35305908 0.37448133 0.27287478
0.82012885 0.03858445 0.2301867
0.710653 0.92462874 0.01058821
0.30367551 0.37264625 0.09746662
0.61434052 0.74363817 0.22545863
0.49035533 0.34721073 -0.00867515
0.22775628 -0.01234361 0.24856439
0.10983748 0.19785846 0.07047932
0.03826301 0.55914543 0.1679745
0.61629155 0.26580934 0.24918947
0.93831489 0.88738326 0.25185424
0.61733891 0.32593409 0.32316361
0.34788316 0.54732753 0.18414646
0.38910606 0.84588921 0.05744223
0.14443083 0.0228657 0.06403379
0.46970356 0.32272544 0.21726614
0.71871332 0.89850254 0.24162819
0.07367328 0.40461505 0.18093231
0.45615997 0.21277617 0.29275361
0.52978703 -0.01214748 0.27698508
0.81977742 0.52151128 0.05172338
0.62426763 0.70510559 0.12546987
0.83921393 0.09184593 0.16053173
-0.04240388 0.46777763 0.11324169
0.4444696 0.68926745 0.12077056
0.07938187 0.92941247 0.14677094
0.60773789 0.99025709 0.12458465
0.94040173 0.56651117 0.24629702
0.21670055 0.87794783 0.04321342
0.70099968 0.98485454 0.29520822
0.78044971 0.21563542 0.33483267
0.87369095 0.24388149 -0.00371199
0.98568587 0.12657928 0.02460199
0.23502217 0.44115113 0.31674254
0.45898701 0.51258642 0.01136883
0.14007083 0.34601937 0.31730454
0.29557021 0.76358941 0.1008275
0.48577739 0.83425314 0.25691495
0.05244022 0.77649342 0.3102491
0.02321147 0.72460882 0.04376964
0.69236978 0.31247855 0.08416524
0.11409615 0.68581357 0.11316808
0.27915972 0.8326583 0.23254029
0.94148934 0.28495159 0.16888653
0.28792039 0.48703515 0.03140624
0.53933047 0.96632643 0.20392951
0.14613404 0.70961214 0.20940479
