POSCAR file written by OVITO Basic 3.5.4
1
17.620497 0.0 0.0
0.0 17.620497 0.0
0.0 0.0 42.27
W Nb Hf Zr 
50 50 50 50 
Direct
0.18784103 0.06497914 0.06826047
0.23490378 0.20392768 0.07124846
0.46125343 0.89052808 0.02515342
0.23012748 0.27680403 0.24099402
0.31855297 0.23859797 0.02354438
0.53427905 0.30962151 0.28151666
0.79296613 0.32944834 0.3178815
0.5304327 0.635234 0.02627953
0.95262194 0.46991679 0.25199386
0.42967942 0.90775806 0.25812446
0.22304343 0.77625936 0.19306649
0.93054706 0.17945445 0.2220677
0.93085432 0.73061728 0.28390933
0.45995501 0.46061921 0.24008555
0.96023196 0.6210528 0.04405186
0.49549103 0.17499173 0.17597125
0.06805565 0.73643804 0.05462821
0.54044044 0.03680493 0.15570553
0.34919602 0.10077818 0.07077428
0.95324874 0.65522933 0.10689584
0.66483867 0.16183852 0.16562407
0.95690954 0.61798686 0.21891946
0.27437285 0.97251362 0.03353423
0.3319824 0.19214572 0.28283715
0.50813925 0.78551745 0.23455267
0.78609085 0.16919518 0.0668951
0.09770793 0.81152189 0.1694623
0.8958385 0.49526811 0.18137499
0.99190629 0.72550339 0.00338152
0.03118228 0.1118052 0.31496155
0.83638161 0.53933215 0.05251833
0.98139161 0.07181198 0.15955505
0.5160141 0.75304323 0.12175628
0.33323061 0.45427102 0.00251574
0.11470123 0.68947816 0.21106534
0.09634198 0.56044209 0.09454694
0.46536127 0.19955267 0.06348633
0.91942191 0.10208813 0.06649742
0.36093336 0.57723147 0.27390196
0.35624439 0.19639112 0.12538352
0.43321091 0.59979069 0.32592283
0.13106287 0.07147654 0.18276796
0.90362388 0.16190483 0.01584651
0.08399654 0.96532851 0.14995232
0.23954408 0.97800386 0.22780277
0.55495512 0.61581534 0.08244592
0.9486329 0.98771065 0.11567558
0.70627171 0.10136247 0.11570682
0.76404572 0.78110433 0.30690355
0.80491495 0.01981316 0.08400613
0.6854611 0.76391149 0.08717495
0.83385664 0.79721844 0.17681303
0.29418501 0.321715 0.12975285
0.75052708 0.18383656 0.22824603
6.634e-04 0.36508361 0.21813405
0.81179404 0.72569519 0.24954019
0.23911808 0.92347741 0.17260321
0.96097708 0.72427911 0.16217534
0.24181953 0.34175614 0.32484876
0.32800224 0.27048534 0.19505798
0.51450849 0.32163262 0.20266073
0.71632248 0.06144202 0.0176721
0.06723389 0.04813789 0.03470152
0.22043847 0.49813175 0.28848609
0.81881505 0.53820968 0.26780767
0.38548583 0.74033022 0.03194029
0.08633634 0.40566546 0.1548052
0.44835082 0.32772735 0.01837791
0.46185464 0.48056397 0.06966209
0.0769787 0.29473498 0.11436723
0.20931648 0.49919999 0.13044643
0.29292139 0.58830881 0.00578901
0.09562923 0.78669828 0.30107468
0.07927509 0.09632256 0.10817421
0.69213915 0.78101832 0.16511047
0.67599446 0.33836189 0.22810824
0.78237641 0.96259558 0.14814588
0.37815326 0.64067256 0.07589002
0.72443449 0.02763859 0.29332201
0.70278913 0.77927655 0.02587451
0.5656724 0.47761843 0.03253622
0.54394019 0.35351247 0.07436759
0.60614514 0.86964351 0.13272945
0.21669637 0.67435551 0.26613009
0.64721584 0.75927877 0.25843536
0.55727029 0.71445978 0.18230634
0.97408092 0.22009043 0.17164085
0.59988183 0.33461654 0.00709682
0.97312695 0.26794028 0.27040555
0.91944242 0.0617094 0.27902171
0.78455913 0.61275285 0.0991957
0.17692919 0.17182308 0.01598066
0.10264132 0.67331481 0.14318896
0.65294439 0.61592555 0.2914453
0.88729697 0.82911754 0.33138931
0.08056848 0.38080889 0.28598527
0.74380994 0.85058618 0.22299042
0.94943368 0.91704309 0.17196507
0.38369155 0.912341 0.31335913
0.36488536 0.1126446 0.19288287
0.12865368 0.85720557 0.23238746
0.31959948 0.82563937 0.23260221
0.91564077 0.00393665 0.01062006
0.6601854 0.97802263 0.08326429
0.31507617 0.94883382 0.09456326
0.08426714 0.54948163 0.01177449
0.07261989 0.18428873 0.06371657
0.23133264 0.56209022 0.20387269
0.00874341 0.38824549 0.06926484
0.30594006 0.43373349 0.24980328
0.80900407 0.03207898 0.23743501
0.93201363 0.35487762 0.14406421
0.40574306 0.06286788 0.01606708
0.23692995 0.05910664 0.13224772
0.41769496 0.0571775 0.13141015
0.14208098 0.94227487 0.00433352
0.49100253 0.48056254 0.31109508
0.56420469 0.44889829 0.12551296
0.20835431 0.82937068 0.03599351
0.48725891 0.58265364 0.13319747
0.92504233 0.44245884 0.00229547
0.33902335 0.35994509 0.06802947
0.51753026 0.06286228 0.22163678
0.56313848 0.89461201 0.19511574
0.95556235 0.58971274 0.30795563
0.75778818 0.441053 0.15033278
0.50763935 0.61693549 0.25860825
0.39016122 0.46105528 0.19231255
0.69738346 0.65298587 0.22548395
0.14811024 0.04818601 0.26962429
0.44756725 0.33866823 0.14109348
0.8429305 0.13312627 0.16948848
0.25523862 0.07195549 0.31593933
0.99452013 0.29828554 0.01127417
0.82214171 0.64219505 0.18396052
0.58458596 0.08321536 0.28748926
0.86855876 0.89728975 0.26968174
0.52739489 0.17266245 0.00368159
0.39518869 0.73002368 0.29163339
0.33267593 0.64206797 0.14413589
0.62432414 0.20728509 0.07680555
0.59482509 0.92245126 0.26215597
0.67607534 0.50854415 0.09061621
0.16618571 0.68414432 0.33263737
0.81090939 0.64619994 0.31501514
0.66665107 0.22700712 0.28425124
0.19652545 0.22359648 0.15561551
0.10505748 0.9118886 0.08719815
0.61947 0.31679139 0.16392206
0.2358702 0.38558429 0.19377663
0.19137228 0.80950129 0.12222068
0.9776535 0.80179363 0.23257876
0.14828821 0.32538712 0.03936097
0.44719517 0.20513384 0.24676053
0.03303289 0.93501544 0.29489384
0.80261457 0.90049273 0.04542865
0.23825482 0.484642 0.06693116
0.67411184 0.0264591 0.20266425
0.53893727 0.77067327 0.31872318
0.40533054 0.82399356 0.16498077
0.75025952 0.48739451 8.1346e-04
0.20258042 0.67204696 0.07662257
0.80177963 0.3945775 0.25972607
0.40070522 0.66688359 0.214055
0.63110328 0.48464334 0.27332385
0.3559615 0.48152113 0.11709253
0.12155137 0.21497297 0.28356712
0.38765809 0.78138214 0.09381085
0.83689684 0.32589775 0.19767625
0.48978242 0.04048336 0.06733849
0.39190298 0.32993701 0.29222586
0.39363644 0.96782529 0.20326707
0.21156122 0.13579455 0.22880786
0.56784481 0.52408516 0.19664059
0.69798404 0.62860918 0.03377103
0.51837569 0.20969567 0.11980488
0.95287895 0.49892825 0.11349266
0.83914244 0.84859192 0.11127241
0.04376221 0.54794288 0.1763335
0.45870438 0.92100716 0.11273041
0.01980013 0.00536286 0.22692859
0.00551202 0.80866653 0.11382574
0.59874499 0.94668144 7.3127e-04
0.12235329 0.44646692 0.23702483
0.86069083 0.32535914 0.06391713
0.01356173 0.85662365 0.03258278
0.7017076 0.23516595 0.01080854
0.86050516 0.74164701 0.05521741
0.93511111 0.20711786 0.10825738
0.37354147 0.03150988 0.27278361
0.56869018 0.81058002 0.05593317
0.06904982 0.59086782 0.27083802
0.70996583 0.39646265 0.05387367
0.74562484 0.2803022 0.12723485
0.72814935 0.47713247 0.20674881
0.23811291 0.8813557 0.28461897
0.07073152 0.2093976 0.2228873
0.60299104 0.1915704 0.23081974
0.6479075 0.63849205 0.14535368
0.82789725 0.18812756 0.28551583
