POSCAR file written by OVITO Basic 3.5.4
1
17.670372 0.0 0.0
0.0 17.670372 0.0
0.0 0.0 42.408
W Nb Hf Zr 
50 50 50 50 
Direct
0.94740598 0.9494802 0.20196869
0.11686497 0.6283451 0.16510555
-0.03620589 0.35725044 0.17644952
0.88034106 0.87598792 0.29964978
0.59073608 0.60451353 0.05803842
0.65834208 0.38799199 0.13859769
-0.0894872 0.45266757 0.13025459
0.26595253 0.89386425 0.27841494
1.0916432 0.02467663 0.30215451
0.23894712 0.62659931 0.23975145
0.38862741 0.55630247 0.25489435
0.71799558 0.63303732 0.02100267
0.35415695 0.95044169 0.05825619
0.40810083 0.33406468 0.29093789
0.5412877 0.8615115 0.2964007
0.68622007 0.39046938 0.2725841
0.35417279 0.16451001 0.04265027
0.63997042 0.29300489 0.19739954
0.96455481 0.4982836 0.07913356
0.65980571 0.18816917 0.2521368
0.70415995 0.18169715 0.16214376
0.47192772 0.49174701 0.0345183
0.08308867 0.35941451 0.29910052
0.05476899 0.94058713 0.04384083
0.40191845 0.17082392 0.15255188
0.94291488 0.40757429 0.33220749
0.16086872 0.11737869 0.04121763
0.78710752 0.15290102 0.26711642
0.65620017 0.45090251 0.20885608
0.29614763 0.4759383 0.16711321
0.90512036 0.96371127 0.15155912
1.12003702 0.88048715 0.283523
0.5719391 0.57289437 0.32570396
0.98444468 0.94281764 0.2707742
1.0097776 1.06446276 0.15647065
0.65039332 0.64127012 0.26232892
0.60538069 0.21189717 0.06402309
0.21020363 0.41725579 0.10707196
0.29912934 0.30636598 0.0431477
0.37307091 0.41920415 0.05920194
0.97679571 0.81615964 0.24520076
0.56830696 0.58683013 0.21718068
0.66934621 0.05971693 0.09824748
0.04666799 0.37213468 0.21860894
0.8838278 0.57502848 0.31955387
0.50710292 0.75999015 0.09514625
0.91831656 0.08956626 0.23671999
0.29768911 0.92546034 0.10844458
0.39961345 0.77508294 0.17336423
0.38142034 0.04495097 0.28615415
0.60215106 0.04080061 0.0411857
0.70691021 0.33178798 0.07145362
0.21303261 1.01650745 0.0731053
0.24407393 0.59859387 0.11564175
0.02098841 0.48624524 0.29171865
0.01503555 0.79283495 0.06148257
0.90552093 0.329476 0.10231625
0.96922137 0.25126463 0.24118321
0.72152525 0.94090813 0.17108349
0.97921257 0.73609172 0.30307193
0.63635021 0.62976822 0.11189373
0.80709725 0.27109269 0.04115688
0.08597369 0.63953627 0.26307581
0.32737982 0.32031899 0.11499937
0.15720637 0.15743366 0.13813741
0.0493726 0.90401067 0.16203493
0.55478185 0.51256588 0.16127599
0.27659917 1.06025267 0.23415431
0.59504361 0.47995341 0.08850232
0.17813047 0.17256073 0.21264894
0.23626343 0.49831767 0.04743284
0.84029192 0.44190567 0.29488536
0.75389236 0.67784304 0.08026988
0.046271 0.06537428 0.02497359
0.55111419 0.98982697 0.30616553
0.34294791 0.44599965 0.00592086
0.0428369 0.37099024 0.07016258
0.52037163 1.05661528 0.24676229
0.15537587 0.3289684 0.24464938
0.72049591 0.24069639 0.30995501
0.04877265 0.08653069 0.22014108
0.43050766 0.31381805 0.02371922
0.26605126 0.67852793 0.18659257
0.83940968 0.6982967 0.35536609
0.94804206 0.60572392 0.12625555
0.35733912 0.75205635 0.24262947
0.81873816 0.66796942 0.1382109
0.1453046 0.36964675 0.02790506
0.75166925 0.07209139 0.03765782
0.04152726 0.22639701 0.03441392
-0.0393097 0.10180965 0.29035671
0.74218312 0.53404888 0.17704424
0.43630518 0.50919168 0.30337504
0.77793972 0.81214951 0.1245111
0.23498163 0.80946935 0.07947734
0.9138624 0.15074861 0.08249469
1.14873841 0.97952651 0.24684141
0.95613413 -0.01046149 0.08109693
0.25324499 0.32353549 0.29002383
0.66199854 0.78516937 0.06506755
0.93721482 0.56747133 0.37602836
0.51411677 0.17425019 0.01948923
-0.08609984 0.31801619 -0.00317795
0.8073875 0.04627296 0.12616121
0.37698487 0.17867097 0.22439245
0.09812952 0.88167154 0.10422652
0.28993916 0.8938315 0.21088949
0.88438364 0.67821323 0.21886136
0.07758458 0.55213577 0.10808165
0.0246911 0.25744037 0.11574332
0.17326668 0.72923139 0.28927579
0.5699454 0.32962153 0.25077036
0.41966292 0.43326278 0.12667317
0.1312814 0.17569256 0.27410939
0.86063181 0.42208039 0.04293358
0.03563015 0.20660596 0.18683668
0.46224945 0.57736227 0.10048226
0.14632471 0.53693285 0.21350256
0.34748466 0.33052424 0.1832627
0.83862152 0.82469661 0.17976806
0.89400334 0.50947227 0.18260801
0.72445982 0.50972593 0.04725759
0.42907606 0.83127741 0.04528579
0.18661496 0.81279429 0.14697454
0.50724257 0.71146314 0.14839975
0.46425373 0.43361747 0.2092921
-0.0725994 0.63604311 0.06250672
0.56184343 0.4742298 0.27091222
0.51279207 0.66878847 0.28743565
0.16653694 0.98599447 0.17785001
0.57888738 0.17021939 0.13247658
0.50826723 0.33166633 0.14980593
0.4394705 0.06993297 0.07799091
0.68863032 0.87588093 0.29611899
0.66611007 0.92136389 0.02127997
0.75971996 0.19985465 0.10288887
0.3164831 0.41227827 0.24574332
0.65663583 0.69964324 0.33499612
0.3513772 0.72020108 0.1106259
0.09403836 0.44799289 0.16032683
0.55928212 0.70935051 0.01081007
0.67237317 0.0577374 0.26947822
0.04503336 0.22558063 0.32607701
0.3864897 0.06720385 0.34397057
0.52410504 0.73898762 0.21710973
0.06016392 1.10493567 0.0905119
0.05572777 0.50903242 0.03093726
0.71627506 0.93222424 0.08729554
0.46256319 0.92529587 0.25074507
0.89556945 0.20705028 0.15931227
0.80186201 0.05532706 0.31716798
0.15591144 0.77437963 0.22118811
0.25356485 0.12543088 0.30662445
0.40391984 0.24702914 0.33875625
0.72624147 0.54729487 0.31618031
0.70031438 0.27901342 0.0099844
0.9487512 0.58137213 0.25066065
0.75061427 0.71558895 0.2212168
0.39706115 0.85452254 0.30986205
0.51730783 0.9758891 3.7522e-04
0.37615239 0.60676446 0.04360627
0.8199008 0.06455624 0.1998884
0.5580581 0.36515596 0.06127768
0.83968175 0.95634895 0.02084698
0.89551518 0.39354269 0.24337317
0.78340762 0.74393999 0.01606789
0.8008178 0.70172711 0.29566888
0.35452889 0.03508489 0.17333533
0.7755993 0.52348876 0.23859551
0.61386831 0.84406314 0.13345619
0.22026258 0.20144432 0.00751118
0.67430293 0.67460267 0.17164388
0.65912366 0.07748867 0.20554041
-0.05180677 0.78732566 0.13439647
0.55029142 0.01211088 0.14136182
0.17209054 0.27074394 0.08748356
0.79118392 0.23985625 0.22222798
0.10845605 0.69747377 0.10327509
0.18620072 0.49623939 0.30658454
0.18339804 0.28537722 0.16332755
0.53229466 0.90737347 0.06975945
0.47622592 0.91824216 0.18462349
0.39528545 0.0292562 0.00302619
0.5904423 0.38621416 0.32700145
0.31370756 0.6332206 0.29512611
0.86447221 0.85845066 0.06264595
0.42918298 0.61321214 0.19732854
0.43966914 0.89757037 0.11825449
0.53028955 0.15226603 0.29766782
0.30052624 0.11291685 0.1166724
0.78768696 0.51198876 0.11055564
0.54471765 0.18417848 0.20081496
0.78448769 0.36720863 0.15191674
0.44694386 0.23293683 0.08845651
0.00672359 0.69457576 0.20096105
0.79723516 0.92772661 0.24367524
0.86922137 0.25358475 0.30223367
0.62051707 0.91626737 0.22502216
0.21564728 -0.02576018 0.32815245
-0.00211802 0.89419393 0.3299536
