POSCAR file written by OVITO Basic 3.5.4
1
17.616934 0.0 0.0
0.0 17.616934 0.0
0.0 0.0 42.27
W Nb Hf Zr 
50 50 50 50 
Direct
0.66454025 0.84851654 0.1134576
0.07444448 0.14233018 0.14678585
0.77285067 0.91837868 0.07893859
0.0534434 0.48877249 0.19329305
0.52165887 0.12705209 0.06519217
0.60852181 0.49910496 0.01150902
0.98346089 0.36727063 0.31010196
0.84228528 0.00936762 0.20043016
0.92702488 0.61779785 0.2800535
0.541816 0.92286048 0.13780474
0.58195413 0.52510329 0.17667556
0.48658213 -0.00234328 0.17743753
0.93973205 0.66897286 0.07620992
0.40590737 0.60983115 0.29638256
0.79080405 0.68362439 0.24856882
0.48792621 0.21576959 0.02213637
0.18889016 0.03334405 0.25610421
0.53060295 0.1214081 0.19236953
0.45818385 0.93799702 0.31456729
0.756604 0.46583426 0.30018422
0.77196685 0.52755236 0.15740734
0.70058869 0.6350033 0.18175529
0.03229206 0.71336376 0.29401896
0.3613651 0.32310116 0.05352769
0.04440614 0.64676306 0.18477465
0.86796451 0.60417972 0.20557369
0.17720244 0.10397481 0.18319301
0.08501434 0.03116554 0.10097655
0.1718264 0.58294842 0.20421761
1.01027732 0.32920379 0.24889258
0.40213548 0.68267345 0.23897651
0.04837239 0.70252552 0.1187851
0.87785612 0.89447787 0.2443004
0.67189794 -8.9256e-04 0.26797567
0.96514917 0.56427272 0.13259407
0.50708999 0.61538591 0.07729708
0.86571815 0.31799397 0.0869385
0.03855344 0.87582075 0.11685131
0.3012978 0.43279055 0.03127065
0.29404435 0.44539228 0.195442
0.3095122 0.78767111 0.12528676
0.09433822 0.96826342 0.29627192
0.90275245 0.24536158 0.21358648
0.30534127 0.62131264 0.2143617
0.43765926 0.12741999 0.24276566
0.61242915 0.84497074 0.18043072
0.59305152 0.04976655 0.01713132
1.10003719 0.48542905 0.01462431
0.44972801 0.39395472 0.01952553
0.04713113 0.25046428 0.3046089
0.67783183 1.08814358 0.07630882
0.0208039 0.42348568 0.14095935
0.97063525 0.38170678 0.0089566
0.53362649 0.58679708 0.23976764
0.06275607 0.98772872 0.16258623
0.90929187 0.91341937 0.17876444
0.59627006 0.0730417 0.14024516
0.55758042 0.76101594 0.07643188
0.24727714 0.85905807 0.26401138
0.66618077 0.23624109 0.10313932
0.40088246 0.35615342 0.15708556
0.11847345 0.96123439 0.05780998
0.31488395 0.25998001 0.104773
0.6142762 0.23329548 0.0370384
0.9322416 0.73080873 0.226125
0.67103118 0.73862234 0.23075004
0.36486379 0.63966157 0.01001356
0.23234666 0.70283977 0.28300728
0.25421611 0.84983482 0.18891991
0.10499816 0.40828351 0.29787616
0.37442779 0.75365035 0.17329952
0.7626004 0.62515405 0.30307568
0.20014238 0.45041476 0.23624403
0.20198971 0.9512957 0.12702831
0.97613601 0.67546921 0.00728899
0.49921932 0.26876742 0.20102473
0.66376952 0.06011693 0.20385578
0.54398364 0.71297131 0.19480379
0.58879513 0.92755198 -0.00310975
0.38255085 0.92670335 0.14914521
0.01027311 0.08064722 0.04965264
0.64286204 0.21487478 0.17579707
0.90139296 0.19076857 0.28059414
0.01434948 0.85826386 0.25676252
0.24993321 0.65865726 0.33732481
0.65850519 0.51419513 0.11250147
0.01567897 0.28529483 0.05188665
0.58655796 0.18046579 0.24418253
0.65177494 0.80609925 0.03160767
0.94144814 0.15021977 0.10134301
0.81477895 0.38367892 0.1352236
0.17954161 0.39732387 0.15850112
0.39459616 0.6654192 0.1251319
0.70589317 0.3567041 0.08398708
0.44454179 0.57491054 0.169884
0.20057169 0.70219 0.15927399
0.8772667 0.57117226 0.01469069
0.7884529 0.69101798 -0.00588792
0.16040557 0.29931564 0.24397953
0.38526982 0.50602237 0.2353548
0.99616946 0.02083363 0.23884211
0.1906821 0.16870037 0.06040785
0.16259984 0.46308237 0.06617984
0.2644347 1.02165996 0.05395153
0.14701262 0.79372391 0.09665128
0.04744631 0.59911419 0.05807378
0.31312523 0.41453921 0.10658009
0.22873519 0.70913833 0.01228846
0.05524943 0.82319485 0.17593871
5.9123e-04 0.8792845 0.33760806
0.88365945 0.95064114 0.29914732
0.71969238 0.37079599 0.19022043
0.5082917 0.77914778 0.13472592
0.54011715 0.05721783 0.2993357
0.35333869 0.14418417 0.18033664
0.86185887 0.77040058 0.03285476
0.25184219 0.10051393 0.12704766
0.55415743 0.41680491 0.06702218
0.76926926 0.0677308 0.01922926
0.14448116 0.76371245 0.2282225
0.58093947 0.37155258 0.14990812
0.27122613 0.53777869 0.29522901
0.26203884 0.85789038 0.04379493
0.24193407 0.64684162 0.08229837
0.71904182 0.50728693 0.22926869
0.50292988 0.43768264 0.21936794
0.49090843 0.25277463 0.10681623
0.68364007 0.61648711 0.0476612
0.87149045 0.48460399 0.33240934
0.06746978 0.16085238 0.257517
0.3523075 0.16238394 0.04738781
0.76047067 0.79321224 0.16707067
0.43501564 0.83580454 0.22945672
0.74743276 0.4654001 0.02826008
0.81457095 0.64629456 0.12432935
0.69266271 0.1532981 0.29718458
0.41067136 0.8977122 0.07919393
0.5792173 0.93868166 0.06799616
0.22901562 0.55503931 0.01340387
0.30667722 -0.00791786 0.19619788
0.60487267 0.53509382 0.29753444
0.60233122 0.70945538 0.29543208
0.90156648 0.18117044 0.02983905
0.24881182 0.16316413 0.24191649
0.36416922 0.8029103 0.30728923
0.49762545 0.49103361 0.12631375
0.16025343 0.33677158 0.02021828
0.67964939 0.60873763 -0.0190845
0.07044962 0.28262959 0.18779159
0.90171669 0.40707228 0.19347766
0.02216399 0.09898584 0.32471044
0.16979061 0.14872102 0.30414432
0.43075196 0.07431711 0.11301698
0.43984322 0.30920364 0.27117043
0.81988714 0.35937127 0.26207055
0.75154185 0.75552517 0.0714612
0.41090488 0.52172634 0.04831577
0.48950609 0.46137371 0.30500934
0.64330627 0.36937837 -0.00630854
0.87487597 0.77648967 0.29881747
0.08437878 0.59738668 0.31753271
0.14154382 0.53809456 0.12689021
0.70324739 0.57303948 0.35053149
0.90303453 0.734958 0.17191289
0.54960576 0.23503904 0.30588599
0.30162878 0.5527776 0.15014401
0.3385033 0.99893943 0.27450494
0.06948777 0.75653135 0.0444266
0.275569 0.34488233 0.27964316
0.72056335 0.9131054 0.22075304
0.01881429 0.42550314 0.07589803
0.60276808 0.89211242 0.31045714
0.39174499 0.14292027 0.31524581
0.87414638 0.51250366 0.08819552
0.62117073 0.65729002 0.13083825
0.9403503 0.01459847 0.1268457
0.76283138 0.20991297 0.23485922
0.52014673 0.65155147 0.02416353
0.12461747 0.28446847 0.10125915
0.82325258 0.08551174 0.25037933
0.22615334 0.25246354 0.16576805
0.48272488 0.81735741 0.0210962
0.54323091 -0.06427406 0.24734824
0.9128787 0.49400073 0.25480684
0.72946456 0.82398273 0.26988526
0.83585124 0.07244538 0.08173256
0.34376485 0.32808687 0.22540163
0.6392348 0.35478159 0.28985482
0.44866543 -0.00739627 0.01739123
0.96411584 0.94528713 0.06658962
0.88048772 0.82638711 0.11228204
0.15913617 0.83725936 0.31862934
0.05633465 0.59248766 0.24631976
0.76182477 0.2377646 0.03962324
0.77499064 0.20353408 0.152787
0.14095505 0.92652673 0.21684502
0.96285508 0.28352396 0.12664356
0.34370151 0.73959571 0.05696484
-0.05500031 0.12763591 0.17689978
0.76471402 0.98235714 0.14616
