POSCAR file written by OVITO Basic 3.5.4
1
17.510057 0.0 0.0
0.0 17.510057 0.0
0.0 0.0 42.024
W Nb Hf Zr 
50 50 50 50 
Direct
0.74852633 0.02641277 0.3231192
0.25178692 0.98614949 0.22983922
0.74346012 0.08543617 0.26164725
0.00557006 0.3271721 0.28728712
0.63535148 0.22913603 0.07123226
0.13741797 0.31429189 0.1181027
0.70109409 0.45383576 0.03832613
0.46267 0.08612001 0.28875124
0.79552418 0.7567935 0.25597197
0.5605424 0.89903301 0.06805861
0.46882123 0.56711036 0.15683388
0.47540909 0.15536931 0.18626028
0.9772467 0.57359713 0.02831865
0.23127441 0.44562921 0.01344491
0.57198727 0.67337435 0.07627808
0.56968486 0.76223278 0.03701006
0.78466839 0.02198311 0.05021297
0.57283783 0.05058975 0.17685963
0.83850741 0.91457808 0.15124585
0.89212775 0.42051879 0.06137776
0.70515317 0.65997201 0.11844834
0.78133613 0.91310495 0.20865265
0.60442275 0.50125897 0.28145564
0.14962895 0.17607193 0.15400098
0.29679412 0.91972935 0.08465805
0.030725 0.92883736 0.09500338
0.08019022 0.07212835 0.12113271
0.14073674 0.03002697 0.18147112
0.88722098 0.57966638 0.25480401
0.86783254 0.1628564 0.29642396
8.7057e-04 0.53064662 0.30614445
0.23786156 0.85965937 0.26001618
0.71732634 0.10904169 0.14046718
0.6903398 0.00680981 0.21945614
0.85213828 0.67916238 0.21024416
0.72758216 0.73486125 0.04636923
0.83517373 0.20063734 0.16228706
0.25268418 0.68984681 0.17182172
0.6053375 0.30439821 0.02055499
0.15981016 0.73235905 0.21693287
0.20658007 0.66014463 0.11374532
0.40003729 0.03346743 0.20120365
0.00710279 0.0716959 0.32031181
0.15621118 0.84282422 0.31781571
0.74906188 0.15112248 0.07763072
0.66232121 0.08191109 0.03720082
0.08870375 0.83309281 0.25947531
0.03222251 0.95737404 0.29096969
0.46226859 0.32230988 0.0071297
0.56175107 0.44308028 0.0185386
0.47056618 0.68668872 0.32094622
0.67561764 0.41308349 0.16758949
0.01583898 0.39330021 0.13157665
0.35904312 0.45676464 0.20493992
0.70837402 0.89474314 0.04455523
0.999062 0.7980929 0.08121383
0.74944276 0.96322829 0.11270778
0.11111561 0.62321508 0.17052845
0.1300444 0.56950706 0.02564414
0.83712953 0.49191329 0.2112379
0.39224553 0.618662 0.11118533
0.33169428 0.78979892 0.29790663
0.01707575 0.3006424 0.06873025
0.40203282 0.39361173 0.12895417
0.90013313 0.66268462 0.0639892
0.32928267 0.13113606 0.05840069
0.13891767 0.31468853 0.03553919
0.18432467 0.16381241 0.22411709
0.03579828 0.59841543 0.24250545
0.15210579 0.00189716 0.06269208
0.19984107 0.56771284 0.21922168
0.70051062 0.75457662 0.32012483
0.70988476 0.38381618 0.30992831
0.15764815 0.9311437 0.12798825
0.85846227 0.80868548 0.02256613
0.57088315 0.37683287 0.11913976
0.72111255 0.16689433 0.19505433
0.55466533 0.6834082 0.13937859
0.39133248 0.61188251 0.20468879
0.59418029 0.1139972 0.23872137
0.87783301 0.27081624 0.09450707
0.25308156 0.4223325 0.07860699
0.12788254 0.17453626 0.0749561
0.06122828 0.91246814 0.01881
0.04180416 0.41584584 0.00564037
0.532897 0.8028487 0.16803035
0.0551702 0.99893641 0.23258228
0.91038287 0.21929024 0.24176672
0.88955379 0.92030948 0.06976333
0.81473982 0.60852581 0.15360672
0.63948268 0.54449195 0.14658592
0.99855882 0.96961021 0.16568228
0.08618601 0.44899666 0.06067448
0.56473899 0.66182578 0.19905402
0.46142259 0.39400738 0.25084817
0.09432337 0.28033489 0.23819548
0.15861046 0.84596109 0.06479982
0.93511027 0.81412309 0.1666669
0.31740767 0.52302957 0.26881631
0.6951372 0.41075006 0.24422964
0.09936703 0.30673116 0.18082409
0.37902829 0.03778258 0.00159483
0.3311379 0.36403647 0.30367103
0.0241563 0.22356203 0.00435879
0.44803181 0.11018682 0.12058939
0.24341235 0.71770811 0.04170935
0.5033645 0.13695964 0.02832958
0.33682999 0.28507334 0.22392973
0.29341227 0.93426245 0.16613781
0.86399102 0.39908135 0.26125579
0.58253455 0.99735439 0.2798982
0.72210819 0.46178469 0.09669708
0.58336985 0.8650263 0.31352445
0.44001722 0.24693866 0.07605823
0.71881741 0.28962284 0.13177135
0.17504907 0.01573328 0.28375307
0.24232705 0.06350136 0.10991192
0.47330561 0.55802709 0.26106557
0.43198264 0.00410863 0.07359196
0.65751731 0.82363212 0.10791644
0.58423752 0.33959636 0.28647083
0.26108977 0.34220007 0.16403142
0.54945397 0.98829365 0.00954215
0.99815029 0.06427622 0.06130981
0.54128039 0.52182025 0.08219853
0.39219993 0.41552585 0.05230329
0.30029777 0.11000088 0.18528274
0.82177311 0.75952625 0.10556694
0.84503525 0.65793395 0.33059407
0.12709473 0.45165759 0.18680459
0.32728055 0.12329656 0.25893598
0.67134804 0.93574333 0.16312382
0.43058696 0.83211976 0.02069976
0.13398159 0.49855772 0.11841922
0.95172578 0.52451724 0.10055155
0.88532645 0.04454536 0.26357545
0.18522635 0.14235322 0.01048049
0.35812974 0.1860539 0.31982036
0.41689089 0.65764046 0.0437882
0.47369558 0.75573105 0.25846737
0.74132317 0.55132878 0.28850674
0.62260252 0.67901605 0.26862891
0.01288855 0.20928197 0.12946073
0.42473146 0.94742584 0.27377858
0.61303747 0.60834014 0.0015719
0.15941893 0.69196981 0.28115791
0.78616434 0.30732238 0.20647395
0.52738577 0.49346119 0.20643394
0.05221599 0.15756479 0.26648361
0.86280173 0.31718528 0.33330763
0.86748457 0.06632221 0.19167669
0.87805647 0.86154175 0.29703229
0.03902876 0.44120604 0.24204037
0.22979845 0.3984364 0.24486338
0.92936218 0.88652587 0.23049223
0.90371358 0.9813934 0.00472063
0.30099031 0.27932379 0.04628576
0.70508015 0.58554256 0.21743381
0.43861023 0.5292449 0.32997162
0.35334751 0.85480517 0.21606703
0.28988019 0.21639583 0.10391682
0.97154504 0.64822882 0.13235865
0.60142857 0.20626757 0.13889716
0.95691556 0.73502856 0.27958521
0.57299232 0.27805862 0.19942837
0.29457569 0.52984881 0.15116408
0.45788828 0.78559303 0.09511803
0.26939899 0.90323317 0.02178925
0.44027203 0.29935247 0.16610567
0.64280444 0.82292712 0.23522109
0.94484961 0.32896614 0.18887646
0.47199067 0.24122521 0.26280738
0.61432439 0.16280971 0.29891497
0.85350418 0.47576472 0.32751774
0.736983 0.76159388 0.16635252
0.89459854 0.06784236 0.11884754
0.84693652 0.43034196 0.14335363
0.40185228 0.75483137 0.16759309
0.13096057 0.87843174 0.19336463
0.59501761 0.05306494 0.0954598
0.98054737 0.52642924 0.18481221
0.28757977 0.63106537 0.31842797
0.76317912 0.91647112 0.27583795
0.7538864 0.24375208 0.25884073
0.73990947 0.17501335 0.32981959
0.87820089 0.16678359 0.04780449
0.15963258 0.47281086 0.29400348
0.73200339 0.5932585 0.06059449
0.17908061 0.26550418 0.29591261
0.28321946 0.79054642 0.11924343
0.4865267 0.9573499 0.1352419
0.02625072 0.72943002 0.00876749
0.07478559 0.63209093 0.08009988
0.74498898 0.30996272 0.05569704
0.1233464 0.77583694 0.13256707
0.29971036 0.69519717 0.24408011
0.01126671 0.14436419 0.19431658
0.29139924 0.56390822 0.07053017
0.51430994 0.92469221 0.21021178
0.99567008 0.71780109 0.20830573
