POSCAR file written by OVITO Basic 3.5.4
1
17.50115 0.0 0.0
0.0 17.50115 0.0
0.0 0.0 42.0
W Nb Hf Zr 
50 50 50 50 
Direct
0.60104618 -0.01088443 0.27406259
0.28971784 0.99302497 0.17076794
0.69460335 0.13439206 0.27786826
0.21627789 0.43075692 0.21324665
0.52374957 0.0553087 0.14485889
0.09365657 0.36344042 0.11225654
0.76106631 0.2712675 0.05470675
0.4624828 0.01971081 0.24985162
0.93306747 0.66732665 0.28173685
0.43663192 0.79348954 0.31699326
0.59886639 0.49306528 0.14394072
0.5021407 0.1785196 0.18127571
0.89545028 0.77997801 0.32258431
0.38743887 0.38000382 0.31006387
0.55287544 0.53305374 0.06765141
0.52267829 0.95127902 0.04489674
0.04190624 -0.0193071 0.12009463
0.79855628 -0.01181307 0.11005818
0.88227172 0.91380633 0.15359879
0.84024995 0.47726817 0.04436658
0.21184169 0.83330844 0.07803066
0.73958954 0.71209611 0.09407407
0.66338814 0.2750722 0.26628683
0.18404813 0.33191971 0.17256609
0.07257932 0.90624637 -0.00233301
0.00502707 0.80314799 0.14523473
0.12665154 0.21698591 0.13495878
0.32664555 0.90401218 0.11738986
0.05455543 0.69253663 0.25685231
0.95599058 0.00428124 0.02558669
0.89903917 0.55270813 0.30858382
0.16032856 0.92384062 0.21752004
0.75077142 0.95551552 0.17589405
0.68498982 0.93316911 0.2317471
0.95116115 0.785464 0.20085823
0.57546232 0.67765986 0.08458945
0.71700698 0.42385243 0.15238452
0.2774428 0.82600659 0.18692603
0.75930569 0.14311427 0.02021558
0.15903359 0.5739538 0.19816526
0.06048942 0.55478799 0.08743929
0.39420875 0.07953983 0.19141663
0.08526428 -0.02517698 0.30774992
0.02865447 0.85896416 0.24323393
0.72545119 0.11566509 0.09053671
0.52433609 0.09896244 0.07450213
0.02441027 0.91871328 0.18614192
0.95330846 0.94033341 0.30159307
0.32522959 0.33514066 0.05897849
0.62559599 0.54908812 0.01431694
0.53889316 0.41691086 0.03817017
0.88689137 0.47114145 0.19836107
-0.03889369 0.58293017 0.03637957
0.37994875 0.40550037 0.24930816
0.92302558 0.03567009 0.08417392
0.00688333 0.7607311 0.02083548
0.92254813 0.87998655 0.09765723
0.19130892 0.6756305 0.14574492
0.05977682 0.64625238 0.30874406
0.81505354 0.66350641 0.22535744
0.41072994 0.63124923 0.08648403
0.20407134 0.9898797 0.27703152
-0.12652511 0.34713873 0.02966937
0.61650873 0.43146683 0.20691334
0.75285965 0.59888171 0.03672946
0.46762943 0.89508735 0.09750503
0.15935758 0.27997083 0.07283436
0.18990249 0.14185208 0.28821542
0.26837135 0.67170537 0.20497005
0.20298199 0.05042685 0.11688445
0.19503355 0.60486909 0.26052317
0.76876849 0.81011185 0.19429231
0.56131728 0.42302248 0.31401976
0.35147483 0.77472784 0.05680647
0.81444125 0.71217934 0.01665468
0.328658 0.45486578 0.17505656
0.75545959 0.10258822 0.22168143
0.52071428 0.76294363 0.13280598
0.32640775 0.59148821 0.15987662
0.70908313 0.26601249 0.11788773
0.75538865 0.23414175 0.20557144
0.45610528 0.34157687 0.08979747
0.15380665 0.29421507 0.30747317
0.02793391 0.8130204 0.3090408
0.08663705 0.43739911 0.31203907
0.60171386 0.77758746 0.19778177
0.14073124 0.03993831 0.17423462
0.6193621 0.29916686 0.17662542
0.77986098 0.83106083 0.05593603
0.85793148 0.58796663 0.09719348
0.65919492 0.60185075 0.20968227
0.02445015 0.12654834 0.1467291
-0.01229366 0.41882921 0.06511161
0.41618842 0.48029844 0.12370483
0.52332082 0.29224304 0.30689876
0.2560015 0.16586162 0.15755415
0.88966554 0.85256925 0.01066433
0.86254457 0.72522127 0.15189393
0.48358449 0.4918416 0.27343007
0.67578931 0.43526066 0.27486463
0.96932287 0.4664914 0.13056432
0.21753257 0.01306 0.05136923
0.260425 0.24438819 0.01608685
0.02467843 0.19229881 0.28178086
0.43182822 0.92991529 0.17233769
0.20279578 0.82626859 0.01821076
0.26739296 0.1569684 0.08399225
0.26460799 0.28995045 0.25507693
0.40248482 0.75906864 0.20033564
0.75993074 0.50913729 0.32392003
0.47721474 0.98109661 0.31453294
0.80176285 0.56173824 0.16263226
0.61532336 0.818684 0.08259935
0.47700401 0.35236986 0.15447112
0.7668976 0.39592775 0.22216949
0.03261383 0.03078445 0.24863266
0.34169861 0.73002823 0.12835906
0.33562204 0.55255215 0.24616665
0.37635246 0.04267116 0.11709859
0.64420243 0.8706209 0.01760324
0.60182293 0.24588305 0.04148868
0.26568833 0.32868394 0.11595912
0.40155251 0.0722449 0.03375343
0.87400914 0.07404619 0.16109633
0.6739371 0.703085 0.15053005
0.62776725 0.37971121 0.09300766
0.4004884 0.19553835 0.1308476
0.93053109 0.71801843 0.07867223
0.64622239 0.69818085 0.02800855
0.06048808 0.44721098 0.18330912
0.54476994 0.13947601 0.29515906
0.76673213 0.84407394 0.12519281
0.59011714 0.81669536 0.30952617
0.10247058 0.64290597 0.03231861
-0.02150749 0.62540868 0.14415828
0.87135445 0.09836068 0.27940418
0.12478787 0.0475217 -0.00267464
0.56352049 0.21094458 0.12207079
0.33645057 0.70261455 0.27180503
0.49299295 0.66999986 0.23682548
0.60939989 0.57013191 0.26369994
0.46777582 0.50397629 0.20104426
0.82934315 0.19512493 0.11053859
0.34202826 0.06820571 0.29493581
0.50823247 0.67990188 0.30137543
0.30553961 0.86621677 0.30861932
0.94521994 0.30916193 0.2308939
0.50626353 0.33731785 0.23375786
0.12408726 0.21630786 0.21046711
0.92160064 0.38413034 0.30265437
0.83494813 0.26169888 0.27153605
0.77715021 0.66906359 0.31172608
0.23321001 0.44796939 0.30130042
0.27857986 0.2139286 0.33027339
0.87131099 0.95591248 0.23150559
0.80211555 -0.01312119 0.03457284
0.37143259 0.49924275 0.05389275
0.68101749 0.73299785 0.25059547
0.44104696 0.22024501 0.04912257
0.26537123 0.09828211 0.2318538
0.96655888 0.25783475 0.09581773
0.01444273 0.50644137 0.26515429
0.58017313 0.17382461 0.2291497
0.83638918 0.81466997 0.26012449
0.63749851 0.06991101 0.02218296
0.18071097 0.4972565 0.13076085
0.51152562 0.79536446 0.03888407
0.06016967 0.91962767 0.05945053
0.32669045 0.28246892 0.19360805
0.60890485 0.9286728 0.14897032
0.01822726 0.29693069 0.16912708
0.41718894 0.19755215 0.26057758
0.57027947 0.01884016 0.20574847
0.69263173 0.54702218 0.09486365
0.52275044 0.62792926 0.15298437
0.91865599 0.13642769 0.21916425
0.81266342 0.39419345 0.09574695
0.22158164 0.61714401 0.07394628
0.18198622 0.88790855 0.1411107
0.64201462 0.97303403 0.07756084
0.81684655 0.54705515 0.25928364
0.36928533 0.93088659 0.03890218
0.78213514 0.98276125 0.29557519
0.71758852 0.33830108 0.32279357
0.89861262 0.16796953 0.03634405
0.0825873 0.11863165 0.07008894
0.37146471 0.52887803 0.31774107
0.59921074 0.58678402 0.33208898
0.10390476 0.34957325 0.25475118
0.47763802 0.65450707 0.0188196
0.51169484 0.85077689 0.25378784
0.19262096 0.80477616 0.25201655
0.08690815 0.73553268 0.08942957
0.70772724 0.41245955 0.02380434
0.96002495 0.62371388 0.20992549
0.33032706 0.9155697 0.24344625
0.85358524 0.34871289 0.16837834
0.16767237 0.46385425 0.06292816
0.67070713 0.11662509 0.15896203
0.12000833 0.7599579 0.18611879
