POSCAR file written by OVITO Basic 3.5.4
1
17.563496 0.0 0.0
0.0 17.563496 0.0
0.0 0.0 42.15
W Nb Hf Zr 
50 50 50 50 
Direct
0.72688571 0.83995107 0.11030098
0.20622426 0.02003198 0.04074746
0.70356285 0.12203238 0.0658898
0.99936467 0.4060086 0.24919721
0.47078283 0.00675868 0.12648435
0.32821059 0.58262495 0.04185404
0.81726806 0.22188027 0.08205583
0.25243249 0.01553324 0.12025909
0.86776722 0.36898398 0.2749154
0.43827864 0.86937211 0.26877802
0.37587286 0.71565069 0.15517824
0.15520271 0.25229732 0.27383924
1.04404294 0.63518693 0.31421872
0.3420407 0.29612596 0.06723463
0.60696387 0.37734695 0.04192165
0.4882011 0.0827835 0.26737331
0.91104428 0.30776056 0.04320292
0.59114828 0.87519453 0.10143909
0.01607842 0.88373082 0.15248047
1.0607588 0.59244276 0.13684509
0.87010771 0.45676927 0.21816369
0.78689036 0.53795824 0.26160104
0.95240825 0.49584248 0.30499775
0.37454651 0.1768656 0.03157352
0.08032049 0.52495597 0.26291001
0.92755429 0.97969234 0.18177541
0.04686993 0.88274856 0.21095948
0.24484573 0.14325945 0.15282241
0.09243795 0.7062421 0.26244333
0.87707461 0.16393689 0.2965835
0.28434693 0.98532146 0.18281314
0.89567556 0.7392937 0.19009692
0.77014828 0.70428758 0.14823219
0.47564644 0.31669862 0.17682185
0.70527895 0.69312778 0.29779796
0.57393328 0.53197813 0.04501285
0.68745539 0.46113561 0.20064897
0.12351148 0.08794762 0.10717914
0.50601616 0.22357027 0.26817004
0.2709375 0.40971286 0.1736508
0.35669085 0.68502039 0.08674863
0.34337841 0.85501168 0.1990458
0.7643079 0.08072046 0.28433158
0.56144583 0.9177976 0.16536424
0.52582223 0.21613241 0.13758171
0.46278965 0.90461703 0.07134917
0.86384572 0.88168664 0.23068747
0.77523052 1.02766796 0.09649619
0.5689133 0.13154079 0.09644418
1.02302083 0.39093182 0.01850487
0.48805984 0.62059674 0.0225086
0.76816104 0.24485313 0.26664626
0.94817315 0.49842203 0.12943996
0.51212945 0.44910269 0.30122637
0.63812814 0.29224168 0.09958692
-0.03370173 0.87969421 0.06960114
0.84139276 0.06643905 0.14691244
0.63399111 1.01136447 0.12140312
0.15263122 0.72226876 0.3128075
0.67191557 0.57246795 0.14533043
0.54479026 0.39628888 0.11773621
-0.02567763 0.91865803 0.2738372
0.14660909 0.8627143 0.02259606
0.5127964 0.24539353 0.06525943
0.62776007 0.67724922 0.01199001
0.66551515 0.78264326 0.25118924
0.44678021 0.83503931 0.32888349
0.30753716 0.24915409 0.25376771
0.12926578 0.17402887 0.21105556
0.91363569 0.37530944 0.10187791
0.24701866 0.79864109 0.092396
0.87778558 0.66130785 0.30123381
1.16503462 0.58375408 0.04474474
0.09354106 0.19768201 0.059861
0.82889624 0.74298248 0.0796088
0.24553933 0.47811176 0.22849615
0.54666002 0.92728265 0.23839787
0.73686235 0.81662572 0.18903767
0.62202793 0.82340916 0.3116434
0.43267335 0.18632238 0.21602333
0.92758234 0.26689654 0.23008356
0.64227136 0.34224704 0.16171648
0.18157945 0.33869774 0.04996764
0.94575049 0.76059111 0.25123716
0.21980615 0.71607374 0.02772969
0.80942381 0.59526698 0.10040835
0.28380719 0.28358364 0.19334463
0.7710008 0.36123445 0.2298965
0.73491506 0.78022275 0.02968342
0.67797886 0.4465129 0.28802246
0.94997578 0.59265525 0.25123515
0.1867648 0.51417286 0.13891481
0.31197135 0.47539034 0.08353354
0.52411383 0.65128064 0.16319851
0.75847299 0.35907654 0.04047837
0.42005402 0.41138874 0.13110185
0.91860511 0.71626937 0.13132716
0.09667627 0.76087404 0.0568757
-0.01035513 0.05654321 0.29235722
0.2121866 0.41443874 0.27379606
0.17480555 0.88886972 0.16168014
0.15610153 0.0314103 0.2957396
1.18809066 0.18968257 0.32529416
0.81576254 -0.08280147 0.05805212
0.37416395 -0.12047826 0.13359842
0.98451635 0.62749633 0.06580752
0.24847977 0.15239839 0.07552765
0.06633232 0.69524361 -0.00403594
0.93957038 0.78516755 0.0249319
0.0578313 0.48494716 0.08181301
0.96476007 0.15500777 0.1762117
0.32592425 0.49183778 0.31357935
0.66548567 0.70004278 0.07985873
0.33397114 -0.02548088 0.25336705
0.56059475 0.05768346 0.18570779
0.81600381 0.80836221 0.29852857
0.41046917 0.08692827 0.08217768
0.61767395 0.76575166 0.15423502
0.35142895 0.13714859 0.2829434
0.47614185 0.60558183 0.1078
0.79594062 0.45936079 0.15034707
0.61133525 0.33039553 0.30204844
0.35538662 0.81116319 0.04664561
0.01501471 1.06077173 0.03840474
0.82285192 0.59067078 0.18589263
0.51761836 0.46437765 0.18369565
0.39395531 0.09157016 0.1737174
0.84341349 0.88687232 0.14389409
0.85586223 0.66043962 0.01935732
0.26719339 0.12109084 0.21812158
0.24865306 0.33186621 0.32998305
0.75154089 0.99013649 0.18513705
0.49657283 0.78801583 0.20466484
0.23258472 0.35969486 0.11501344
0.08737902 0.34322829 0.20043701
0.78764026 0.17776366 0.19896155
0.34059834 1.04678762 0.01079043
0.64584108 0.08649377 0.24097856
0.22352168 0.63229093 0.10034714
0.50997921 0.75801773 0.09182461
0.71911877 0.59001302 0.33604608
0.58419895 0.80857541 0.03379996
0.78955662 0.28741394 0.14477844
0.24716745 0.20302655 0.01354553
0.20748677 0.58388134 0.28216555
0.36489393 0.64483035 0.31974957
0.04015167 0.35660211 0.30732982
0.79359112 0.70340081 0.23408921
0.94500786 0.35792705 0.16881414
0.56522103 0.38904643 0.2307709
0.89017706 0.12733063 0.06231607
-0.00762069 0.79649602 0.32959661
0.4527593 0.4191485 0.0607712
0.39626123 0.32293201 0.29281975
0.60098055 0.24571191 0.21718495
0.69604316 0.15471327 0.14049617
0.6481486 0.23433409 0.0081839
0.49854745 0.72756122 0.27845931
0.73203516 0.54567217 0.04558066
0.22890434 0.8013144 0.22849229
0.26032678 0.42417598 0.02427564
0.07043743 0.75472335 0.12450981
0.80091282 0.20942082 0.01306429
0.06687273 0.7337334 0.1954308
0.63843855 0.42704652 -0.01585199
0.36357084 0.57372072 0.15369691
0.61010178 0.15831722 0.30315485
0.31737676 0.79654902 0.28450225
0.6121927 0.59411169 0.29007287
0.38266725 -0.02526569 0.31449516
0.13751673 0.52319764 0.33050446
0.61599146 0.99481973 0.3030609
0.3871032 0.37473284 0.23495944
0.90614878 0.49204041 0.0386467
0.22941839 0.73324304 0.16517521
0.12252185 1.05925394 0.17459763
0.06685323 0.37441143 0.12972129
0.42555971 0.2997415 -0.00146093
0.12179485 0.23418606 0.14715201
0.715615 -0.0693924 0.26450997
0.34876787 0.2486443 0.1319909
0.13012801 0.89622088 0.27313114
0.85609546 0.96738389 0.31861019
1.09645581 0.511336 0.00515524
0.86787385 0.04123179 0.2429867
0.60056867 -0.0035453 0.05094533
0.6539467 0.65460742 0.20963188
0.57063048 0.72315811 0.34738772
0.14586668 0.31345864 -0.01578276
0.12632864 0.92648103 0.08283498
0.31117398 0.95322026 0.07517466
0.17025494 0.58196414 0.19326027
0.01693961 0.53049671 0.19877837
0.71757606 0.41977609 0.09310038
0.97300696 1.00780654 0.10774065
0.38177805 0.5450769 0.2576025
-0.01373864 0.1943667 0.11012513
0.33191159 0.66689605 0.22255893
0.04412429 0.04337548 0.23578151
1.0127827 0.19978095 0.27899025
