POSCAR file written by OVITO Basic 3.5.4
1
17.510057 0.0 0.0
0.0 17.510057 0.0
0.0 0.0 42.024
W Nb Hf Zr 
50 50 50 50 
Direct
0.84425431 -0.0089804 0.29816576
0.26905688 1.00195239 0.2251483
0.75456494 0.14748455 0.26586804
0.01114003 0.41863603 0.30010764
0.5529603 0.21687307 0.09388288
0.12976328 0.32959575 0.11328173
0.62502758 0.50369244 0.03555542
0.47045909 0.08406783 0.30180166
0.81021617 0.71377722 0.22690827
0.56601523 0.8929248 0.09546526
0.52316217 0.47239767 0.14593134
0.38632965 0.25563176 0.22470678
0.97822505 0.52708465 0.04487578
0.22725897 0.38252027 0.00543143
0.6224079 0.63843245 0.06747871
0.588772 0.76614552 0.04528797
0.7605484 0.00787094 0.0310536
0.5569159 0.09786781 0.18123936
0.81496981 0.8764767 0.14478985
0.87818925 0.36620573 0.05291674
0.80078204 0.64081323 0.09439183
0.77322726 0.86529504 0.20574122
0.59269994 0.54963539 0.28505746
0.14866498 0.18799539 0.1481226
0.38663415 0.92520164 0.09718727
0.04591965 0.94497259 0.09918869
0.08448925 0.07795909 0.11853252
0.18161501 0.04452697 0.1661637
0.85022021 0.5688125 0.25348884
0.89788485 0.20399772 0.29225447
0.00450328 0.5594533 0.28216439
0.23449633 0.87103149 0.25549561
0.74274446 0.05310744 0.15458675
0.76606774 -1.3276e-04 0.2412444
0.89503004 0.60937163 0.19179497
0.74133983 0.71717335 0.03885744
0.82852921 0.16997997 0.14857207
0.23148526 0.71993446 0.17203345
0.557187 0.32363395 0.04522856
0.15616747 0.72476308 0.22560079
0.21679182 0.6699598 0.10673661
0.39598838 0.04225114 0.21600553
-0.01574646 -0.00139984 0.30546781
0.06261754 0.87994339 0.29308689
0.74941763 0.12449927 0.09282105
0.62162038 0.12573616 0.05961075
0.09506884 0.83825077 0.24123151
-0.08181748 0.85961593 0.2924825
0.45739719 0.34961042 0.00541551
0.50485994 0.48307107 0.01336546
0.35696074 0.80496676 0.28175497
0.70735867 0.39443263 0.16358953
0.00418835 0.41586111 0.08412685
0.32373121 0.43724776 0.22232151
0.69652784 0.86229908 0.03456305
0.99442073 0.79323201 0.07363798
0.73215941 0.95688884 0.09613902
0.11215485 0.58854035 0.16414489
0.11852223 0.56455035 0.01230806
0.83739593 0.46187945 0.20351043
0.35221661 0.65421392 0.11163914
0.21979208 0.86226101 0.31975931
7.3127e-04 0.25478046 0.05374471
0.39478739 0.49659917 0.1154144
0.91010629 0.66020321 0.05033386
0.2995862 0.16670892 0.05782123
0.12654851 0.28400226 0.0204285
0.13569485 0.16917273 0.23017449
0.06467296 0.56904628 0.22661274
0.14793551 0.00536701 0.0606061
0.21667134 0.5784386 0.22974762
0.6907807 0.66980292 0.25143177
0.75675255 0.42310771 0.31692488
0.21521358 0.89350666 0.09732969
0.8802067 0.82895187 0.01838405
0.60932693 0.36996572 0.1115923
0.73131067 0.16119275 0.20172611
0.50516331 0.6246604 0.12141817
0.42935355 0.54680861 0.19244775
0.54615692 0.11927396 0.24842334
0.85011907 0.21860219 0.08685625
0.24290139 0.30854429 0.06331025
0.14120887 0.17634903 0.06839013
0.02601878 0.90736521 0.03585397
0.00112623 0.39664847 0.01308622
0.63317241 0.73731283 0.16205342
0.13451655 0.98321317 0.22960066
0.88389995 0.17275146 0.23171206
0.88860289 0.95009538 0.05785671
0.82119718 0.52186396 0.14868391
0.66029615 0.60622424 0.13000214
1.05865499 0.97486347 0.17807763
0.149172 0.44829869 0.05083352
0.5547851 0.62686183 0.21699795
0.42238442 0.37392308 0.25703133
0.00200507 0.28318931 0.25711235
0.13393834 0.78796773 0.0636142
0.96752363 0.86496959 0.14051717
0.29346345 0.46689865 0.28423698
0.69541131 0.46818642 0.25875307
0.07703729 0.29158331 0.17837444
0.41503331 0.07541177 0.0215949
0.3033018 0.30042947 0.28158712
-0.00363975 0.19394397 -0.01243316
0.45091907 0.16786956 0.15274149
0.30771898 0.7710018 0.06560382
0.50350394 0.19456805 0.01926823
0.238092 0.28423079 0.21329433
0.34425975 0.98115559 0.15544257
0.86715489 0.38534651 0.26737257
0.6655977 1.00070179 0.29280648
0.69808943 0.49915363 0.09473648
0.53558515 0.88398558 0.29240854
0.40520957 0.3050961 0.09846612
0.70653489 0.25618992 0.13054851
0.19155813 0.03694216 0.29619997
0.26154759 0.05576966 0.10005671
0.43126409 0.58395082 0.26536862
0.44550935 0.08341493 0.08354515
0.67249253 0.77412566 0.09868831
0.5683185 0.40564117 0.29107346
0.28387833 0.3725741 0.14139351
0.58088529 0.98372772 0.04554878
0.98726326 0.07918867 0.06565395
0.51405477 0.48684887 0.08102921
0.35188779 0.4235272 0.04349965
0.29314402 0.1266092 0.18512986
0.82727856 0.79796666 0.08336131
0.84743341 0.7080963 0.30410727
0.16500531 0.43049446 0.19508406
0.32195674 0.13799477 0.26269203
0.66500638 0.90976289 0.16158183
0.43900669 0.89055692 0.04042926
0.15821405 0.47830171 0.11746809
0.88822977 0.51587278 0.09271494
0.97948588 0.02278955 0.24263617
0.12743995 0.11544117 -6.8418e-04
0.33196229 0.07227729 0.32621901
0.44731461 0.64038967 0.05017742
0.48327902 0.78417861 0.24517059
0.73137537 0.58496544 0.30754544
0.58529505 0.69524454 0.29186471
-0.01407197 0.22452565 0.12544423
0.37801313 0.96902445 0.28275434
0.61876176 0.66341303 -0.00227245
0.19295762 0.74833817 0.2903233
0.72689124 0.31279893 0.2197086
0.55302871 0.46116691 0.2242731
0.05316499 0.15620914 0.29202125
0.92927321 0.33364701 0.33586604
0.86568801 0.01252077 0.19270269
0.83539383 0.88027754 0.3429725
-0.00808704 0.42956338 0.23341663
0.14279483 0.31406692 0.2723004
0.92187387 0.85740865 0.22067071
0.95077145 1.0170873 -6.9001e-04
0.35189577 0.26383111 0.00312804
0.71326298 0.57086958 0.1921054
0.43579117 0.45290759 0.32462515
0.37007805 0.88885385 0.21488962
0.30032409 0.19566725 0.13387282
0.97228618 0.69045553 0.12393253
0.58165152 0.26463874 0.1780893
1.01626139 0.7115964 0.2768101
0.55086622 0.29028459 0.23922836
0.27854326 0.5547437 0.16542355
0.50261997 0.78126101 0.11014662
0.28639452 0.97220168 0.03647815
0.43853336 0.35477384 0.1793885
0.63818644 0.83585968 0.22363065
0.88760789 0.30644396 0.18693395
0.46249243 0.25247133 0.30283521
0.61195571 0.15540677 0.31182313
0.89360005 0.5210684 0.32189423
0.80898819 0.71937651 0.15078942
0.92212957 0.04707273 0.12986023
0.8358415 0.36720744 0.12681739
0.46685483 0.72787431 0.17677333
0.21776609 0.89213236 0.18136898
0.61799304 0.05663366 0.11269772
0.99771266 0.44507894 0.15788561
0.32654404 0.63770958 0.30362266
0.75523903 0.83273912 0.27983962
0.75385645 0.26335424 0.30761882
0.79031453 0.11738777 0.33183775
0.83815559 0.16855945 0.02885201
0.16293753 0.57628415 0.29812062
0.81529015 0.51028114 0.03101735
0.20026091 0.17273605 0.32358295
0.33842138 0.7955367 0.13856857
0.49310966 0.93677089 0.15375177
0.03436896 0.70741758 0.01967361
0.09050181 0.60208074 0.0786937
0.72344864 0.29924119 0.05837526
0.10728566 0.79019933 0.13197282
0.31505405 0.71563021 0.225407
0.01424473 0.1325809 0.1898135
0.27864189 0.57927065 0.0647211
0.57637198 0.98202675 0.23173305
1.01951658 0.71920264 0.19759215
