POSCAR file written by OVITO Basic 3.5.4
1
17.520744 0.0 0.0
0.0 17.520744 0.0
0.0 0.0 42.048
W Nb Hf Zr 
50 50 50 50 
Direct
0.61497868 -0.05531999 0.01954549
0.26345825 0.95830815 0.15676011
0.75969771 -0.01996937 0.02933411
0.05917541 0.37863426 0.25635696
0.49831171 0.18529836 0.14363689
0.15353647 0.25635801 0.14362291
0.75609297 0.30582923 0.0877631
0.31237111 0.95590208 0.22203166
0.88782874 0.80356176 0.25823512
0.4445436 0.7819086 0.30164431
0.62315053 0.57121735 0.16731208
0.47206044 0.05421042 0.23443917
0.99314407 0.49538422 0.06975321
0.49150917 0.41813057 0.08167235
0.5242983 0.52450031 0.04923428
0.55491258 0.73639887 -0.02165144
1.0036831 0.0934325 0.11205367
0.68456682 0.16282877 0.16078757
0.84776874 0.93680927 0.17905585
1.00231946 0.3495706 0.0515279
0.97171168 0.82328892 0.09751766
0.69494231 0.6959078 0.1752939
0.84347467 0.49155259 0.31873126
0.22958998 0.37809735 0.16362294
0.06488077 0.82865497 0.02314533
0.95606222 0.95184445 0.11734145
0.16703388 0.10807018 0.14113767
0.3909784 0.0958013 0.10520221
0.00623471 0.77351385 0.22553423
0.97991957 0.27066427 0.27486123
0.01671426 0.68109133 0.27851609
-0.01765893 0.85361134 0.17144793
0.7143103 1.02397325 0.1900362
0.61154714 0.02948911 0.2528736
0.84802796 0.80067599 0.20134759
0.62447643 0.55998202 0.09061291
0.88079825 0.39134125 0.09186857
0.26573536 0.853642 0.10582739
0.75066594 0.16639594 0.0438743
0.29318003 0.61104581 0.25145508
0.21613262 0.68104663 0.11016786
0.27262314 0.08656211 0.20393555
0.03413516 0.14800213 0.30539056
0.13639823 0.80988828 0.2898386
0.67457953 0.04352508 0.06596505
0.52434665 -0.20692384 0.02956096
1.02699187 1.00184937 0.17685773
0.97278067 1.01800926 0.30320292
0.23694979 0.18314977 0.09381619
0.71124648 0.58049614 0.28226389
0.71350389 0.52789551 0.0210623
0.92135912 0.47269506 0.20277799
1.09468923 0.45663827 0.0244894
0.45345115 0.34778165 0.23221923
0.87444162 0.03979298 0.06866411
-0.14660814 0.87158571 0.06753685
0.77286823 1.00522799 0.11437886
0.21577552 0.65177604 0.19571205
0.17866095 0.51191957 0.07971134
0.74259116 0.56073931 0.20084478
0.47092183 0.54304506 0.11642213
0.12868569 1.05626641 0.28375231
0.05880329 0.23916608 0.01625206
0.59930913 0.26893304 0.12562614
0.94660275 0.60391939 0.02497276
0.38258345 0.93507641 0.11729314
0.36456658 0.20019733 0.03257668
0.33467081 0.28394128 0.27170663
0.16210007 0.66444016 0.2627654
0.07994557 0.20001949 0.08856101
0.46742868 0.68231853 0.34385649
0.73707898 0.74959733 0.30385584
0.72027416 0.29483316 0.01941115
0.12190394 0.81254034 0.07113766
0.63334424 0.67301998 0.02226825
0.5855853 0.43937492 0.13896698
0.74830124 0.16334666 0.22747117
0.50090172 0.84843378 0.11261457
0.3652087 0.67109345 0.20055546
0.58977437 0.11138153 0.19695824
0.78672128 0.15179101 0.10771151
0.46542212 0.21122377 0.07484287
0.18938828 0.09293737 0.03723734
1.1262401 0.93554637 0.32229906
-0.03005307 0.53581612 0.31649206
0.47172087 0.82505813 0.17481512
0.14147095 0.02708242 0.19897928
0.81172084 0.3665154 0.20747118
0.69518173 0.70540965 0.07524729
0.86202221 0.62507046 0.19688655
0.56247399 0.60591804 0.23703794
0.03899431 0.1587847 0.16235983
0.09913929 0.40110389 0.1060051
0.46424531 0.66151026 0.16065205
0.47937857 0.42895144 0.27879417
0.33383715 0.1730365 0.15070431
0.81088692 0.66635024 0.01802972
0.93897122 0.70218652 0.15608971
0.58033126 0.54525182 0.30297338
0.81997549 0.50869103 0.25707761
0.16061874 0.51941332 0.14471758
0.19457882 0.20658505 0.28451127
0.21692846 0.34600631 0.25478833
-0.08431308 0.23842004 0.32819842
0.39455877 1.02064097 0.17444192
0.23310385 0.88279033 0.03378068
0.32668356 0.29696077 0.11052819
0.28151911 0.26112258 0.20112499
0.26007427 0.77201669 0.16445014
0.86090325 0.65500568 0.29786101
0.41561038 0.91441323 0.27113002
0.80954444 0.48138032 0.15462721
0.67442928 0.88358207 0.08181947
0.6156298 0.32423479 0.1835546
0.80004401 0.2831114 0.1531032
-0.01199997 0.10086963 0.23750639
0.23662423 1.00681823 0.08563372
0.46310379 0.50282971 0.20664453
0.50245747 0.00646686 0.07389662
0.49731897 0.67803605 0.06769307
0.57036601 0.33833333 0.04424408
0.3361785 0.42711709 0.2003716
0.48813385 -0.08219198 -0.00345745
0.93183587 0.94090882 0.01438265
0.77731895 0.65075854 0.1267094
0.6978114 0.4368383 0.08962245
0.4522136 0.33156134 0.1583971
0.81501298 0.82256954 0.1274348
0.72897853 0.5825201 0.34111818
0.18584492 0.50914978 0.23981114
0.30570118 0.07803747 0.27222179
0.67839195 0.87934434 0.16210431
0.61622473 0.86423748 0.28434903
0.16535017 0.67338574 0.04477056
0.87731069 0.71782806 0.07827554
0.75177043 0.3223336 0.26371203
0.3896461 -0.11606687 0.05242829
0.58543967 0.07264994 0.01198469
0.32030248 0.58892054 0.08694183
0.44442223 0.63104421 0.28222333
0.78302163 0.69038278 0.23624203
0.58764495 0.72150046 0.30147929
0.90779391 0.24633075 0.08598023
0.2331172 0.92740988 0.28091696
0.4452441 0.66282384 0.00489268
0.30607799 0.71554912 0.3122274
-0.11300207 0.389878 0.26975868
0.62542759 0.44535917 0.24665243
0.11106011 0.21760858 0.21654216
0.78940189 0.34246558 0.33393136
0.9197953 0.26405706 0.21892192
0.966908 0.82643085 0.31081312
0.13803037 0.51273404 0.3039387
0.32294818 0.47961343 0.2812465
0.84126053 0.0034053 0.25205706
0.72197025 0.82523154 0.01749041
0.31747161 0.44361745 0.11634889
0.61980482 0.7741279 0.22122719
0.35863863 0.05184187 0.03124045
0.14410136 -0.15860788 0.2092212
0.18650782 0.31909272 0.05884589
0.07332064 0.64900639 0.20384032
0.62843497 0.18923205 0.26652031
1.03279396 0.91324531 0.25880211
0.68211184 0.41404143 0.31013028
0.32120676 0.56820053 0.15769481
0.35865765 0.80361629 -0.01874696
0.04960078 -0.02491541 0.06340304
0.40676346 0.16616067 0.21819258
0.72348932 0.90137899 0.23115256
0.06829193 0.4096115 0.18999278
0.4534058 0.21822089 0.28760273
0.6867578 0.05246879 0.30047842
0.83090061 0.54951162 0.07427649
0.60206654 0.73342611 0.12308731
0.85562409 0.08724364 0.16908269
-0.02367411 0.54532605 0.13705847
0.3658493 0.72872662 0.11312731
0.12275406 0.9321666 0.13329743
0.59540362 1.01383463 0.13271551
1.00830636 0.53717083 0.24489859
0.13421122 0.95831702 -0.00315569
0.81565633 0.92173847 0.30027022
0.8203863 0.18118473 0.28193375
0.8576301 0.41747469 0.03458859
1.00605197 0.10975719 0.02621163
0.37037541 0.55050581 0.34330629
0.30812663 0.46765776 0.04546283
0.06233028 0.37064411 0.31773873
0.32523007 0.72626931 0.0406502
0.45892537 0.75564185 0.23836131
0.09216926 0.6876085 0.33029076
-0.07454907 0.76536725 0.01635352
0.60288944 0.18438769 0.06601226
0.03754379 0.63065718 0.07879402
0.28382112 0.77134541 0.24892687
0.95456618 0.32974926 0.14588354
0.23651352 0.19947971 0.00492513
0.58217732 0.92182211 0.21244527
0.09265912 0.74303954 0.1389443
