POSCAR file written by OVITO Basic 3.5.4
1
17.620497 0.0 0.0
0.0 17.620497 0.0
0.0 0.0 42.27
W Nb Hf Zr 
50 50 50 50 
Direct
0.23194663 0.07556065 0.07319572
0.21369999 0.19366992 0.10877888
0.3687889 1.00403337 0.06424784
0.29244182 0.30161975 0.22840027
0.29409705 0.16655878 0.04146093
0.48584293 0.31627075 0.2858722
0.82615254 0.29733287 0.31267064
0.49559681 0.56071701 0.02738583
0.93416293 0.50946013 0.24340401
0.44192455 0.9110574 0.28306778
0.23676717 0.72025775 0.18399115
0.89781796 0.15698377 0.22406654
0.91095587 0.74692364 0.29220207
0.49632115 0.48039681 0.26770382
0.93145887 0.55355968 0.04154601
0.47744654 0.17210995 0.15340896
0.06248402 0.7053942 0.06739552
0.60708046 0.07513955 0.14148486
0.36903622 0.10756393 0.10519812
0.9532008 0.67302789 0.11698881
0.67089934 0.23492729 0.1619073
0.95598927 0.66226417 0.24350306
0.23829286 0.96518132 0.03756138
0.2719498 0.17907603 0.30464232
0.44892267 0.79795307 0.24373981
0.82281295 0.1755295 0.06088371
0.10893647 0.79913136 0.16601553
0.88920878 0.4367372 0.19466787
1.00527435 0.65284015 0.01590303
0.04425754 0.13817029 0.2537331
0.77111421 0.53678203 0.03773042
0.97832686 0.05523003 0.17543426
0.5093088 0.76732228 0.12897593
0.3453417 0.3740792 0.03926667
0.08806652 0.69224048 0.20840693
0.07085098 0.57959116 0.0872184
0.51382089 0.21071328 0.03825058
0.95023755 0.10191409 0.05012422
0.39094161 0.56829547 0.28390371
0.3271863 0.18990615 0.15304718
0.47479784 0.62559112 0.32479517
0.08827528 0.13481478 0.1925106
0.94185054 0.2231234 0.01409525
0.09197169 0.97997087 0.14818978
0.24836346 1.00807558 0.22240208
0.59171418 0.6091406 0.10211487
0.98925422 0.98942953 0.10854489
0.70731558 0.10736722 0.098957
0.74856554 0.76764945 0.28070905
0.82740684 0.00526738 0.06551193
0.66070662 0.77857359 0.09270676
0.8514354 0.7971732 0.16338571
0.29677326 0.35774668 0.09229064
0.76306282 0.2065332 0.23518158
-0.02574308 0.32306916 0.22497941
0.84900064 0.73017865 0.22611706
0.24162688 0.89586449 0.17409483
0.96724231 0.73186584 0.18328362
0.1380035 0.42183011 0.32838953
0.41260601 0.32466427 0.20582828
0.58990681 0.41945642 0.18931904
0.6860246 0.06563051 0.04130755
0.06094246 0.02314475 0.03751404
0.23846333 0.52205603 0.29375412
0.83198749 0.59164212 0.25180637
0.36871038 0.70811493 0.02054373
0.07818083 0.37485784 0.18553701
0.42179577 0.26128909 -0.0039368
0.47932435 0.41935745 0.01663468
0.10632503 0.29790807 0.12772419
0.18433519 0.4627168 0.11872283
0.36942197 0.56270566 0.00671082
0.05555943 0.7523782 0.269574
0.10148037 0.11231513 0.12454994
0.70161958 0.71120802 0.14818138
0.68921822 0.33790666 0.20971899
0.82278499 1.00785293 0.12769744
0.40524159 0.66398023 0.07361488
0.75233051 0.05971414 0.24045124
0.76404621 0.79874864 0.04111072
0.62795787 0.49573242 0.05731745
0.54741746 0.36416899 0.07671025
0.70464685 0.87958589 0.15492132
0.2298538 0.63371975 0.25084809
0.59630133 0.80586597 0.27301081
0.53956505 0.72281433 0.1846165
0.97929606 0.2111918 0.1650474
0.62085692 0.3016525 0.01037966
0.9840409 0.31489827 0.29966382
0.90604805 0.02540022 0.26646234
0.78517064 0.6550662 0.10093616
0.19596155 0.09424354 0.01150872
0.08807289 0.66092567 0.14003289
0.66584658 0.65883615 0.27729345
0.83280064 0.82752267 0.33399534
0.02312851 0.43487017 0.28591937
0.71455582 0.85956922 0.21666719
0.97689882 0.89367797 0.16373356
0.44701258 1.01318181 0.32464601
0.3099907 0.13499078 0.20440326
0.14540074 0.85804119 0.22524246
0.30051575 0.81629049 0.23075373
0.83334047 0.07038546 0.00765664
0.68611139 0.95323232 0.09194596
0.26931561 0.91048165 0.11270234
0.0923866 0.57068785 0.01715248
0.08587412 0.17167404 0.05007112
0.17581773 0.55345849 0.1914583
0.03174051 0.42387291 0.06455474
0.33771835 0.47079169 0.23092292
0.84009663 -0.03364727 0.20324397
0.9573856 0.38035524 0.13626657
0.41569373 0.0904103 0.01236525
0.24350846 0.05618083 0.15454341
0.41908121 5.8916e-04 0.14534625
0.12346129 0.91989136 1.6347e-04
0.49841191 0.43548787 0.32190962
0.52709487 0.49444815 0.13105956
0.21690169 0.80008108 0.02900806
0.45623631 0.6325525 0.13259546
0.90154036 0.38777251 0.02816085
0.40539252 0.24602539 0.09066221
0.47802351 0.08085575 0.20708199
0.5707383 0.89839108 0.19875246
0.94149696 0.56292123 0.30855913
0.7661172 0.44477254 0.15827491
0.50765337 0.66180506 0.26568958
0.35435356 0.52820117 0.16982348
0.68091584 0.68955504 0.21566801
0.16727923 -0.01071832 0.28616285
0.45763511 0.36096449 0.13661269
0.78661673 0.11433591 0.18096299
0.26185111 0.04020153 0.34388575
1.05994621 0.30555565 -0.00309142
0.84513528 0.59634491 0.17235441
0.53181754 0.13454436 0.2769782
0.79015844 0.8992662 0.2795735
0.57668133 0.09825617 0.00235731
0.34419794 0.69964311 0.29017457
0.27556752 0.61856345 0.11811557
0.67657126 0.21210882 0.05039237
0.58581736 0.98524502 0.29285706
0.73716921 0.52001668 0.10303086
0.15392754 0.68191204 0.31277085
0.82043239 0.67927884 0.33453687
0.67222715 0.2242222 0.29242495
0.1904597 0.24110928 0.18402066
0.12806153 0.92456442 0.08010558
0.65597719 0.37918988 0.12290545
0.26771317 0.3968574 0.16354286
0.17202954 0.77208711 0.11063795
0.97741985 0.84753736 0.23114899
0.20657536 0.27886846 0.03630763
0.40772319 0.20834777 0.25789108
-0.00561546 0.90636399 0.29431785
0.72051452 0.91635789 0.01199716
0.19331818 0.45986004 0.04157351
0.62096555 0.13761856 0.20951232
0.46909021 0.77659054 0.32610206
0.37020573 0.7772086 0.15878761
0.6848949 0.41880909 -0.0038498
0.20762535 0.65024726 0.058566
0.8452756 0.38846073 0.2632989
0.35250473 0.65888436 0.21689626
0.63129963 0.42594419 0.27501582
0.41850834 0.49194339 0.07394572
0.13671367 0.15765545 0.3196575
0.37642695 0.81714875 0.0730488
0.86794728 0.27954379 0.17977062
0.54302562 0.06641951 0.07570537
0.30022166 0.38832108 0.28759981
0.3868192 0.92773709 0.20431933
0.19526941 0.14612586 0.25526754
0.50742407 0.54353004 0.20195897
0.68324392 0.63660563 0.02251974
0.56494364 0.21354343 0.10260491
0.90526323 0.52259839 0.10461434
0.85667871 0.84481423 0.1027253
0.01492749 0.54284395 0.1795365
0.53150626 0.91515654 0.10305673
0.05278045 0.00613657 0.2263685
4.2136e-04 0.81546814 0.10801027
0.52429992 0.91847675 0.02574188
0.1705535 0.40667624 0.23013453
0.95205237 0.27314819 0.08199912
-0.06647881 0.89736271 0.0301759
0.83399948 0.28715158 -0.00835428
0.89453986 0.71604826 0.05834224
0.89231859 0.12617749 0.12251638
0.32849629 0.05301144 0.27742966
0.56847323 0.71832391 0.03062717
0.10383421 0.55308333 0.24931508
0.76717554 0.39385367 0.0583051
0.78788201 0.27704887 0.11201202
0.67927818 0.52490646 0.22994267
0.2581293 0.86361617 0.29252959
0.12188072 0.27031378 0.25028579
0.55564336 0.27552958 0.22979427
0.63580349 0.5694402 0.16216199
0.8537697 0.1620801 0.29170267
