POSCAR file written by OVITO Basic 3.5.4
1
17.563496 0.0 0.0
0.0 17.563496 0.0
0.0 0.0 42.15
W Nb Hf Zr 
50 50 50 50 
Direct
0.69405318 0.8702196 0.08773748
0.1646489 0.06492092 0.03958503
0.72574372 0.12235577 0.09112535
1.01132613 0.3946176 0.25535894
0.513145 0.01848601 0.12554005
0.3354826 0.58469231 0.02390378
0.79874291 0.25056712 0.08029001
0.27474458 0.01240846 0.1160426
0.84923865 0.41715937 0.28384131
0.48120296 0.86042232 0.25425987
0.47014224 0.78444381 0.1490832
0.16182416 0.22198979 0.27412937
1.03999344 0.65180341 0.28748763
0.34118534 0.30574465 0.04103294
0.60681803 0.37519316 0.04962508
0.47603405 0.06963838 0.271426
0.91097717 0.25174944 0.04146567
0.56686233 0.86555456 0.10223408
0.01185348 0.87136547 0.162925
1.05696779 0.60745464 0.12926812
0.87190886 0.45327056 0.22346289
0.79039261 0.55196702 0.26037966
0.94473122 0.52896941 0.27853525
0.40615858 0.20566945 0.01443388
0.09108458 0.51370425 0.24793681
0.9429783 1.00280652 0.19798576
0.02161577 0.86268464 0.22045598
0.21763662 0.12768857 0.14152338
0.16977601 0.7639026 0.24894901
0.85691858 0.18727413 0.30324525
0.29109058 0.97347304 0.17337186
0.89118255 0.75304939 0.19662489
0.77086212 0.71175662 0.13441108
0.47498613 0.29056779 0.17928362
0.7073087 0.65745992 0.29299177
0.60361927 0.52161805 0.05104927
0.65889954 0.5017187 0.21241893
0.07008298 0.12227217 0.09103392
0.47670336 0.25391267 0.27604666
0.23008881 0.36607239 0.16709061
0.34882669 0.63053385 0.08332614
0.38777711 0.84061149 0.19205112
0.73530863 0.1074959 0.30347124
0.55663941 0.89630701 0.16743666
0.52493506 0.19782808 0.13866478
0.48222974 0.94844618 0.07666561
0.83550385 0.89319196 0.2066997
0.80072261 0.98531899 0.10637143
0.57449869 0.14424851 0.08622353
1.00350994 0.36080418 0.04075976
0.46551213 0.61437124 0.03139612
0.71300966 0.24339557 0.27251312
0.93415558 0.51073754 0.14127404
0.46405689 0.4040394 0.28628747
0.65715622 0.26818362 0.10220512
-0.05753141 0.86770632 0.09896501
0.83761865 0.11351026 0.1296574
0.65873951 1.00693314 0.1269623
0.1622852 0.70773164 0.30474034
0.66427331 0.55074712 0.14641533
0.53980847 0.40885992 0.10300963
-0.06353361 0.91248772 0.28071317
0.19824492 0.89648205 0.0270945
0.47676618 0.29928605 0.05903649
0.61878594 0.64209977 0.01117877
0.68321763 0.82360639 0.29124979
0.38349943 0.75634471 0.31225736
0.30914413 0.30515931 0.26501999
0.11689262 0.21900971 0.2090079
0.87523614 0.3707022 0.11357585
0.28494259 0.77472773 0.07496021
0.90975745 0.68135141 0.30920215
1.14621993 0.51156057 -0.02180911
0.06579398 0.18500924 0.03494458
0.83711619 0.75142874 0.07321862
0.24587774 0.48676022 0.2262285
0.60385924 0.94612085 0.23182711
0.75193626 0.80058048 0.18024288
0.54017697 0.82591584 0.31403737
0.38624144 0.17958999 0.2343558
0.86668803 0.2742435 0.24661947
0.63817649 0.36568098 0.15660814
0.15784333 0.3114435 0.04866295
0.97085071 0.77069461 0.26401352
0.21581189 0.74268339 0.02557142
0.80764223 0.57728551 0.11470798
0.32053479 0.24391573 0.19120521
0.72305186 0.35610077 0.21400589
0.73203923 0.8021015 0.03249667
0.70039774 0.4196805 0.27411949
0.93477806 0.62252239 0.23310473
0.19895945 0.50905827 0.15823516
0.26572266 0.52857438 0.10165104
0.51486843 0.60112834 0.18027795
0.80907858 0.36476298 0.0351448
0.38193919 0.3700279 0.14172049
0.93716788 0.71182369 0.12887803
0.09113956 0.83133045 0.05518547
0.01634568 0.05376949 0.30160622
0.17585803 0.40868641 0.28184863
0.2075024 0.85496446 0.15649851
0.17636049 0.02788939 0.29827342
1.09719321 0.18427632 0.32928569
0.83187833 -0.07907449 0.04918759
0.40275087 -0.09456656 0.12859186
0.97344032 0.63978354 0.07101504
0.26273853 0.14697751 0.07584118
0.08643268 0.6263855 0.01122345
0.94066483 0.79897666 0.03189145
0.07382592 0.49799037 0.07883551
0.95370944 0.16715902 0.18759805
0.31423371 0.46917315 0.30134073
0.6552795 0.67516928 0.07795485
0.37610223 0.00255791 0.23378259
0.52146716 0.09797021 0.19523842
0.82606241 0.82734769 0.30706987
0.42613879 0.09565075 0.07911915
0.63024019 0.70786405 0.14542801
0.29721989 0.15274953 0.29088172
0.51166549 0.58481295 0.11661219
0.79550192 0.42541681 0.15886722
0.56947973 0.31715268 0.32162602
0.38951444 0.75717624 0.02327715
-0.00298843 0.979126 0.05266568
0.78503944 0.61365458 0.19219376
0.50766532 0.45332029 0.1721343
0.38186724 0.09412135 0.1642719
0.83114284 0.85269294 0.1370913
0.9306806 0.66643148 0.00380105
0.24582454 0.08578034 0.21887635
0.22093125 0.27773673 0.33230187
0.7382906 1.01883969 0.18870649
0.58604882 0.7797592 0.20825023
0.2577644 0.37291227 0.09006432
0.15088453 0.3518385 0.22455093
0.76457421 0.14681549 0.23103964
0.31055035 1.08122833 0.0036289
0.61942229 0.10349147 0.24585555
0.14842265 0.64764621 0.07167916
0.44176981 0.75122477 0.08477966
0.76559367 0.5215935 0.31782358
0.57478425 0.81056006 0.04430834
0.81542791 0.25470108 0.18475777
0.23954292 0.198762 0.0044841
0.25550898 0.61722237 0.26643607
0.42300992 0.57408487 0.30530863
0.03863618 0.35179551 0.31049328
0.81298292 0.72747199 0.24639523
0.97289778 0.33281202 0.19772552
0.57159699 0.41192289 0.23362807
0.91350126 0.12512125 0.06058491
-0.01669298 0.79764735 0.32718249
0.42288267 0.46544284 0.06285374
0.38376859 0.28325171 0.33000036
0.58832015 0.25194675 0.23504132
0.66998654 0.15818194 0.15596507
0.60164679 0.22303135 0.03703858
0.52988492 0.70747429 0.27178258
0.77233652 0.5883965 0.03717001
0.19504761 0.92014582 0.22967861
0.22059321 0.46379132 0.03523097
0.09449138 0.7543829 0.12183713
0.76461239 0.20426106 0.01790046
0.05800031 0.70561452 0.20976985
0.68062516 0.44440672 0.00392636
0.36885762 0.52884348 0.15402414
0.50482425 0.15416087 0.32020291
0.32486449 0.84818003 0.2640606
0.57538265 0.50236219 0.30322201
0.42889987 -0.04248574 0.31284356
0.15178239 0.54254884 0.30712883
0.60745162 0.96108684 0.30384578
0.38017633 0.38319304 0.21859643
0.89756197 0.46557111 0.06967866
0.32344223 0.71650183 0.15121318
0.10704912 1.04519013 0.17987277
0.06547256 0.38635016 0.12753021
0.5044187 0.42432218 -5.2997e-04
0.14354202 0.25765201 0.14830013
0.76431487 -0.03347379 0.26444832
0.34101434 0.22912382 0.12607367
0.10185157 0.86818196 0.28412091
0.84473481 1.02009124 0.32263536
0.98943087 0.50790714 0.00953962
0.88402387 0.0728347 0.26046452
0.64202558 -0.01142449 0.05470117
0.658654 0.65560285 0.21853632
0.51290117 0.68246183 0.33989797
0.13118016 0.38287684 -0.00802062
0.14332213 0.95388678 0.09903525
0.33107964 0.94523292 0.05826881
0.20386886 0.63798215 0.18262737
0.0582335 0.51532752 0.18582187
0.7334865 0.44340363 0.09745431
0.97568168 1.03781677 0.13144498
0.40121321 0.53104944 0.23990611
-0.02062304 0.22873083 0.11695829
0.3710789 0.68976458 0.21747922
0.0556001 0.03236942 0.2434601
1.02203769 0.22329017 0.25969056
