POSCAR file written by OVITO Basic 3.5.4
1
17.616934 0.0 0.0
0.0 17.616934 0.0
0.0 0.0 42.27
W Nb Hf Zr 
50 50 50 50 
Direct
0.61012827 0.85134783 0.11615521
0.07671948 0.14867083 0.16098774
0.77123102 0.88267905 0.06587178
0.05366736 0.45894566 0.22698191
0.56035516 0.09406936 0.07957246
0.54509834 0.49350119 0.0032271
0.97140375 0.36690732 0.29528755
0.79587342 0.01344928 0.18505151
0.92680026 0.63913528 0.27107761
0.56482075 0.95738702 0.15380842
0.61441656 0.53741572 0.19729296
0.45159442 -0.03401526 0.20473157
0.90053227 0.63611566 0.07215628
0.43840311 0.60193703 0.28849277
0.82688799 0.78136743 0.23421255
0.48216941 0.29127059 0.03396877
0.16965857 0.07049237 0.25426842
0.52620054 0.10539207 0.18754214
0.42805094 0.96156507 0.26294629
0.72387566 0.46144761 0.30635894
0.77694955 0.49348057 0.16780425
0.74573754 0.63593263 0.19379768
0.07857814 0.71420585 0.28505284
0.42532952 0.38228001 0.07075432
0.03001836 0.64440608 0.16911585
0.9121377 0.61392859 0.21293294
0.20668393 0.09684641 0.19218631
0.14666698 0.05557667 0.11028461
0.12049595 0.54046768 0.18128619
0.97893617 0.31564842 0.23896976
0.43039546 0.68087845 0.24387163
-0.00801005 0.71137299 0.11748946
0.83088618 0.89372286 0.25954198
0.69675725 0.00217272 0.28596478
0.94495555 0.52053159 0.14352579
0.5316456 0.63324001 0.06579402
0.83180388 0.27790514 0.07100312
0.0177706 0.90710744 0.10073298
0.28805785 0.39487583 0.04470271
0.35164695 0.4085058 0.17217926
0.33082858 0.77478477 0.10999495
0.08348419 0.9806672 0.28767702
0.86628872 0.27155437 0.21152527
0.28629172 0.54327907 0.22365111
0.45751617 0.11717261 0.24049383
0.5877497 0.84087177 0.17908289
0.62713768 0.13307331 0.02475156
1.00263384 0.47786224 0.01775634
0.40339029 0.4113996 -7.4234e-04
0.06694324 0.2475422 0.28665251
0.7229279 1.13075015 0.06699236
0.04167105 0.42004662 0.147161
0.92947606 0.33974181 0.0161722
0.55185883 0.58999279 0.24665443
0.0407943 1.00650861 0.16888077
0.92375849 0.88520287 0.19837563
0.60892625 0.13988558 0.13205412
0.5751662 0.78852068 0.0634024
0.31291966 0.82643732 0.24500166
0.69540812 0.25818184 0.11057339
0.43419182 0.30920926 0.14460286
0.1471124 0.96398566 0.06130551
0.26903295 0.31549708 0.11699401
0.64378444 0.27663259 0.0441684
1.00787797 0.73840812 0.22381299
0.64761282 0.7672232 0.23200597
0.29067387 0.65460779 0.00487869
0.29193083 0.66406187 0.26776309
0.29515071 0.83795465 0.1785106
0.10040804 0.43230572 0.28119654
0.33825475 0.66050758 0.18401043
0.70877786 0.66826929 0.26873748
0.20135029 0.44442092 0.21389624
0.16908675 0.91981527 0.13449604
0.96066736 0.64194092 0.01760259
0.57580212 0.22712188 0.21407274
0.65439183 0.06701627 0.19181097
0.56993751 0.70403847 0.19315619
0.5550353 0.97967153 -5.181e-04
0.32612502 1.00965563 0.15917623
0.0087076 0.04847722 0.06363355
0.63866583 0.27597909 0.17025272
0.881603 0.23245911 0.27592132
0.01491447 0.88911534 0.25697341
0.3578362 0.63148518 0.33159576
0.67151685 0.52057373 0.11852395
-0.04421707 0.31319221 0.09030071
0.6095194 0.14282385 0.26749564
0.68245745 0.75311595 0.00597122
0.98784937 0.14174227 0.11337599
0.82577881 0.39235919 0.12651193
0.21706518 0.42310035 0.15065281
0.42178912 0.63397148 0.1140738
0.72242073 0.40510178 0.07021439
0.44558926 0.57457887 0.1812824
0.15542225 0.69054818 0.14558306
0.85446702 0.50707059 0.03027311
0.79991982 0.64566719 0.02913701
0.15965866 0.29970653 0.24199732
0.41171598 0.48089429 0.26300444
0.9508152 0.0142027 0.22996203
0.17467774 0.17001096 0.07607017
0.17150745 0.46361293 0.07547059
0.30814625 0.99776544 0.09055522
0.17476342 0.78400053 0.09489125
0.0801209 0.58565921 0.03553482
0.35477158 0.48530988 0.10669658
0.19653995 0.73994125 0.03458
0.05303355 0.83065362 0.15958943
0.06397762 0.86124945 0.3231135
0.89337017 0.95059241 0.3058375
0.72779364 0.37338874 0.19430588
0.4366168 0.81093876 0.15438028
0.48575309 0.07406348 0.30035163
0.39314538 0.17656223 0.19130667
0.86771568 0.80053837 0.02092386
0.25810576 0.16088077 0.13218377
0.56051257 0.43490558 0.06158718
0.76747729 -0.06253427 0.01186521
0.17099669 0.76456913 0.2175488
0.58829033 0.38880173 0.1209938
0.23821895 0.52031931 0.2789932
0.32895653 0.86327524 0.04572921
0.28218778 0.60704762 0.07159635
0.77589246 0.55003352 0.25130464
0.50709278 0.40762714 0.18542129
0.49016122 0.23195844 0.09443626
0.66544113 0.57991891 0.04825292
0.87313054 0.50255305 0.32354179
0.06056393 0.17131824 0.23243373
0.31565548 0.23700526 0.05252943
0.74577541 0.78275853 0.16537722
0.46241099 0.81298673 0.21710456
0.79481542 0.35961333 0.01984925
0.82141917 0.62950085 0.13303243
0.69510519 0.15285884 0.32088296
0.45217045 0.90087797 0.08954211
0.60940123 0.94784751 0.05846263
0.23225553 0.51433294 0.01407075
0.31981453 0.01623957 0.23651447
0.5910756 0.51697238 0.30538015
0.55551303 0.69103037 0.30079741
0.92536621 0.19816595 0.04054975
0.26621971 0.18040075 0.25723104
0.37718132 0.77578522 0.29360358
0.53500785 0.53125831 0.1278111
0.13440341 0.3371118 0.04460679
0.72093432 0.50978359 -0.00313084
0.06863293 0.31329302 0.1842939
0.88767354 0.42622 0.20074075
-0.02257214 0.09349638 0.2879712
0.15665603 0.1382076 0.31821776
0.43184264 0.09217287 0.12386562
0.43922557 0.27244963 0.27753699
0.80848282 0.36617226 0.26808837
0.72990419 0.74127037 0.07394475
0.43624746 0.53263871 0.03786842
0.41481081 0.47045031 0.32244794
0.56751689 0.32577741 -0.01102144
0.94232351 0.77940059 0.30414841
0.04448994 0.55362689 0.31715894
0.07069769 0.57875757 0.11856651
0.71699868 0.58300683 0.34355532
0.9032076 0.73891584 0.17838469
0.60693126 0.26645284 0.29933159
0.26946783 0.56616653 0.1561165
0.23714383 0.9821327 0.29489427
0.01546208 0.77881577 0.05900402
0.26758669 0.3117008 0.29549482
0.72590813 0.90909033 0.21307238
-0.05089277 0.44629081 0.07286859
0.57987154 0.90506533 0.30638303
0.36323829 0.19331836 0.3191989
0.80283053 0.52527178 0.0862525
0.59841013 0.68568015 0.12808586
0.90002779 -0.01911401 0.13318583
0.72620225 0.22665771 0.232427
0.55286825 0.67792157 0.00154625
0.10372652 0.3031682 0.1089522
0.80785446 0.07267311 0.25905255
0.23086073 0.25861388 0.1874513
0.46468225 0.86571247 0.02057392
0.58616023 -0.03056309 0.2489296
0.93420317 0.49342429 0.26760468
0.70089796 0.81136568 0.29800826
0.81460087 0.01190891 0.07189076
0.36288508 0.31765929 0.22749275
0.56889632 0.42907098 0.24829699
0.4428625 0.02561765 0.04636486
0.94105377 0.95524353 0.02764889
0.89562936 0.80775865 0.10682545
0.19375709 0.81839991 0.28698457
0.10307672 0.59453678 0.24425103
0.77340125 0.16042076 0.0048825
0.77749473 0.12567978 0.1405947
0.1609173 0.95035256 0.21318337
0.90739275 0.27710269 0.1456435
0.40940384 0.71833215 0.05992504
-0.08528079 0.13365927 0.18442723
0.69756093 0.97682767 0.12635599
