POSCAR file written by OVITO Basic 3.5.4
1
17.50115 0.0 0.0
0.0 17.50115 0.0
0.0 0.0 42.0
W Nb Hf Zr 
50 50 50 50 
Direct
0.58391031 -0.00246977 0.2777388
0.24035675 1.00848458 0.17521685
0.70603281 0.12899711 0.26894524
0.16007803 0.43468695 0.22028382
0.47533679 0.04234208 0.14596271
0.13601318 0.3408205 0.11450057
0.76950682 0.25167143 0.08919202
0.42454229 0.05037726 0.25668151
0.97576306 0.70687493 0.26256982
0.51793519 0.75665668 0.30287113
0.55719986 0.481367 0.14409066
0.48279097 0.18681997 0.18259591
0.90165824 0.7755152 0.31036051
0.38088349 0.35880197 0.28634404
0.52021248 0.54382556 0.08428676
0.50151897 0.96860986 0.03284442
0.05206619 -5.4728e-04 0.11570097
0.82713889 0.11171843 0.10762318
0.87673497 0.88997853 0.15769947
0.85326845 0.49490579 0.08341759
0.20345046 0.79148346 0.08359019
0.75098443 0.7179397 0.08761538
0.67312553 0.26538291 0.24850836
0.15322542 0.34464724 0.17156585
0.02633817 0.89534818 -0.00829339
0.00840661 0.8449043 0.13016852
0.2214826 0.23443991 0.0938169
0.32377673 0.87868044 0.10483333
0.13077155 0.64647526 0.24772195
0.9885256 0.02701184 0.0403287
0.95705844 0.55577027 0.31839994
0.15684515 0.90956012 0.21556542
0.79423819 1.00858077 0.15186392
0.61744983 0.88758008 0.23207233
0.9327359 0.80544138 0.20935761
0.60408746 0.67013181 0.09040355
0.65606927 0.39410267 0.1719882
0.25634248 0.87108474 0.17692195
0.74287493 0.20572594 0.0291532
0.18058402 0.59421159 0.19606525
0.00621959 0.50789936 0.08576117
0.36584001 0.07589654 0.18852343
0.02614886 0.04007001 0.30449231
0.04194768 0.85021357 0.2383541
0.68440826 0.14428229 0.08511899
0.52230895 0.08860963 0.08418046
0.0230725 0.92183352 0.17485015
0.94221285 0.9058028 0.28746481
0.330779 0.3175154 0.06848864
0.61550852 0.46902759 0.04874606
0.51178752 0.45070362 -0.00114135
0.90503932 0.48808171 0.18589878
-0.06837821 0.62447756 0.05480838
0.29289118 0.4143247 0.24430139
0.97195272 0.10147857 0.09054472
-0.00399841 0.73073403 0.01397064
0.85768917 0.95172836 0.09679389
0.15972025 0.6835443 0.14118201
0.07480747 0.64191178 0.30937314
0.80420097 0.67576533 0.22375576
0.42831911 0.65516122 0.07296204
0.14125067 0.92758266 0.28684003
-0.07919983 0.36630221 0.06331421
0.57502666 0.45032642 0.21939412
0.77978018 0.61504735 0.04543421
0.48419432 0.92783372 0.09173809
0.20759434 0.25986247 0.03592218
0.14908019 0.09835309 0.29059428
0.22985384 0.72678618 0.2026005
0.21592614 0.0766568 0.12668768
0.20072407 0.54786847 0.27935958
0.75719508 0.82236448 0.19258154
0.52043746 0.44751553 0.31431204
0.33986101 0.76621203 0.05475358
0.8263289 0.75888119 0.02869981
0.26472519 0.46573178 0.18121456
0.71426027 0.00483931 0.21740102
0.49045683 0.76902888 0.10949696
0.32999587 0.59481953 0.16154172
0.75120364 0.25050357 0.14794013
0.75657941 0.14578835 0.19171293
0.47412201 0.37161941 0.06537896
0.18018313 0.23639172 0.33491831
0.06362436 0.82802308 0.30773934
0.10525177 0.47223365 0.3137371
0.55074314 0.76965036 0.18570237
0.10043814 0.09529565 0.17597212
0.64071341 0.2489216 0.18958375
0.76224704 0.87321584 0.056616
0.84235859 0.60570311 0.12915004
0.60811801 0.58809219 0.19255443
0.08840099 0.18138419 0.118868
0.07664495 0.39122638 0.05857202
0.3791738 0.49619648 0.11868891
0.51636529 0.29186999 0.30700549
0.22280041 0.18275999 0.16792479
0.90572119 0.88042622 0.0326001
0.8573632 0.71856333 0.15865128
0.47887686 0.50435301 0.2587945
0.65031356 0.39911578 0.29507158
0.96873749 0.38708923 0.12849377
0.19514776 -0.01532903 0.07155481
0.37489034 0.36981424 0.00440331
0.01250067 0.20511828 0.27943373
0.40841345 0.86991298 0.15517742
0.16445245 0.75832847 0.03097602
0.2846427 0.1049905 0.0458288
0.26058855 0.24720544 0.27583413
0.37338057 0.73962743 0.20009688
0.79563671 0.47245988 0.31978972
0.45369095 0.94775514 0.30367034
0.73499552 0.536088 0.18322703
0.60106139 0.81911789 0.08210807
0.50163218 0.34432015 0.15726636
0.73104308 0.41629863 0.23115801
0.04483028 0.03545612 0.24126698
0.33039005 0.71885418 0.1231641
0.32859076 0.60087619 0.23536428
0.35321852 0.02393703 0.10997582
0.64626769 0.90087029 0.01034599
0.58374278 0.31038783 0.03161775
0.29110274 0.36219059 0.12903966
0.44760627 0.0750804 0.0027845
0.93174494 0.05082594 0.15080245
0.67444208 0.70064788 0.14657081
0.62561344 0.38306178 0.10435425
0.37979963 0.20324247 0.13153792
0.90763766 0.77785472 0.09193672
0.67354714 0.74745602 0.02045921
0.0614799 0.5006248 0.17691882
0.57883746 0.12427311 0.30901151
0.75795231 0.84595977 0.12643007
0.63546929 0.85450606 0.29432917
0.06570752 0.58898829 0.02327551
0.00137309 0.62934062 0.13589591
0.87986314 0.09135009 0.27294514
0.13508561 -0.01389804 0.01017748
0.55141431 0.20939086 0.11469611
0.36631508 0.74884991 0.29887411
0.49969041 0.64262474 0.23715362
0.64365307 0.55340913 0.26666224
0.44188613 0.47254179 0.1860235
0.91851308 0.23489476 0.12639025
0.29084459 0.08283711 0.30469508
0.48317818 0.60693669 0.30290101
0.28298569 0.90215397 0.31210077
1.0257906 0.35768594 0.2334108
0.52631178 0.3182522 0.23945938
0.14205252 0.23161274 0.21919971
0.95915104 0.39749323 0.3092334
0.82342216 0.27092213 0.26689923
0.78480197 0.67069602 0.2944037
0.27026522 0.38060725 0.3318818
0.3671633 0.22777152 0.33383401
0.88474228 0.96809441 0.22466334
0.79171157 0.04332581 0.04027639
0.40162526 0.53129058 0.04113752
0.64581932 0.73354204 0.25138816
0.44521757 0.21391356 0.06286721
0.24601485 0.10006861 0.23618097
1.03537967 0.26166599 0.06786876
0.05367745 0.521479 0.25365326
0.58351389 0.12273208 0.22520826
0.81563256 0.81123803 0.26034131
0.60714301 0.09297925 0.02471555
0.15141976 0.51329495 0.12000674
0.48776433 0.8144165 0.02289863
0.06035529 0.87541094 0.05920905
0.34411356 0.26076375 0.20709301
0.59047736 0.92075563 0.15471147
0.03835907 0.25172762 0.1769993
0.42175251 0.19733458 0.26836626
0.5053837 -0.03736724 0.20478047
0.71020067 0.5430902 0.10576538
0.48830437 0.64401993 0.15496656
0.93969994 0.17076424 0.22315679
0.79662657 0.39273168 0.12928826
0.26330409 0.60295325 0.07958094
0.15077004 0.88703898 0.13001183
0.63723696 0.98719871 0.08124622
0.86451514 0.51844496 0.26253894
0.33936333 0.93963479 0.0447137
0.77103793 0.97411937 0.28847848
0.70861061 0.2476937 0.31342267
0.88017672 0.17399641 0.051396
0.10023535 0.13938526 0.03828742
0.33980112 0.51894125 0.30018758
0.64937499 0.52285037 0.34020665
0.12173641 0.34853002 0.2882196
0.57656836 0.59118536 0.02394236
0.48575187 0.83267541 0.25226453
0.21514198 0.77568199 0.2726875
0.05895651 0.70404598 0.07610211
0.76551799 0.43208735 0.04665194
0.94673954 0.62788728 0.20214219
0.3109798 0.94072198 0.24672358
0.87540861 0.34636796 0.2020532
0.23916254 0.41836343 0.06133799
0.62523921 0.09380619 0.15435169
0.09196428 0.76472558 0.18954477
