POSCAR file written by OVITO Basic 3.5.4
1
17.50115 0.0 0.0
0.0 17.50115 0.0
0.0 0.0 42.0
W Nb Hf Zr 
50 50 50 50 
Direct
0.60750301 0.02090618 0.28317878
0.28845791 1.01958372 0.17257403
0.71308724 0.12554027 0.28773582
0.18881617 0.43109886 0.2367437
0.50906356 0.06627325 0.14000168
0.12332817 0.37755749 0.10226233
0.76015593 0.29386662 0.06884376
0.45122285 0.02764435 0.24132236
0.94424021 0.68047916 0.27161084
0.47916037 0.78944062 0.28905032
0.55534042 0.50915928 0.14589885
0.51082406 0.21270243 0.18108042
0.90639869 0.82660086 0.32736709
0.41006066 0.34525709 0.27257917
0.48787338 0.50479603 0.09006496
0.51288185 0.96741105 0.03432909
0.02226878 -0.01788352 0.12941429
0.79697967 0.02862136 0.12088014
0.88349336 0.89192828 0.16019356
0.8811047 0.48786829 0.06562294
0.21689533 0.786927 0.07679694
0.74901148 0.68557264 0.07286464
0.67270873 0.26826283 0.26403249
0.20108217 0.31946635 0.16945904
0.03801173 0.85434291 -0.00685654
0.00731609 0.83837767 0.13048339
0.17499561 0.22810539 0.1002543
0.3268481 0.89682844 0.1137304
0.07838588 0.67952868 0.25382273
0.96982142 0.00263097 0.03833756
0.91739447 0.56952065 0.3054394
0.15611685 0.92262448 0.21568623
0.74787942 0.95028319 0.17250586
0.68754164 0.89127903 0.26408788
0.91749197 0.80181409 0.21098983
0.57213766 0.63196988 0.06346856
0.6968574 0.42590392 0.16946644
0.28852728 0.87791193 0.19216604
0.72076343 0.18557672 0.02059279
0.13255956 0.59811613 0.20517458
0.08917057 0.54527337 0.08187127
0.40943303 0.10733065 0.18345148
0.06086929 -0.06434206 0.29143331
0.04094366 0.86850672 0.24578528
0.68403338 0.12818339 0.07383133
0.52532231 0.09708926 0.07382184
0.00953151 0.92637469 0.18691052
0.91290978 0.90758361 0.28374891
0.31144519 0.32525093 0.06733929
0.60229477 0.48955057 0.05132681
0.48136152 0.38472809 0.04448309
0.91488736 0.44174141 0.17033586
-0.05133485 0.62117793 0.06118727
0.3296182 0.44187068 0.24255178
0.94008025 0.09475821 0.09097696
-0.013704 0.72693304 0.01773349
0.90043288 0.93677916 0.08515779
0.15791585 0.67129249 0.14817919
0.05591344 0.63419222 0.31229663
0.79583534 0.69231086 0.22173238
0.39543144 0.64328751 0.09873126
0.18506596 0.99060607 0.27058297
-0.10094619 0.35615009 0.05921001
0.59462673 0.4848526 0.20541053
0.77862712 0.55991852 0.03945523
0.47942961 0.920125 0.1004702
0.18755234 0.29872107 0.04588419
0.16606943 0.12613211 0.29426918
0.2198485 0.73650931 0.21090885
0.19787351 0.05510677 0.11565665
0.16666513 0.56652779 0.27954261
0.72472327 0.81619531 0.18757424
0.55049295 0.48999449 0.32462133
0.35677115 0.77392449 0.06622246
0.83001394 0.72110737 0.02082777
0.26532452 0.45740632 0.18435222
0.7502899 0.04798248 0.24242346
0.47876389 0.7749248 0.1205721
0.29142788 0.63656656 0.16978092
0.73152886 0.22871308 0.13109588
0.76679003 0.17233894 0.20782879
0.46499706 0.35938515 0.10007898
0.13053786 0.2483805 0.30989104
0.04694044 0.78619211 0.30794895
0.06531335 0.49452408 0.31632738
0.58103316 0.75076909 0.1880768
0.11212344 0.04477928 0.17703571
0.65047777 0.28198757 0.1836421
0.78068614 0.85942645 0.04270277
0.84765513 0.58975616 0.11138461
0.63225979 0.626556 0.19078305
0.05923243 0.14223836 0.13801596
0.03815095 0.40940285 0.04916754
0.35832426 0.50879818 0.11920397
0.54184662 0.28920861 0.30061451
0.24023412 0.18045155 0.1602596
0.90292908 0.87817469 0.02452031
0.87847788 0.73163149 0.15949068
0.50046265 0.49172705 0.26090252
0.64672009 0.39538948 0.27772017
0.98302261 0.42666691 0.10826844
0.21314962 -0.04212287 0.06668172
0.37401824 0.29135938 0.00809328
-0.0090806 0.22543178 0.28456402
0.42781069 0.94001084 0.17844811
0.15363406 0.80516476 0.01981768
0.28082998 0.1643955 0.05701202
0.25368219 0.26265406 0.26835597
0.38753282 0.73305743 0.19830733
0.77178716 0.46600225 0.30932295
0.4517623 0.93584187 0.30701693
0.77539055 0.5588142 0.18556259
0.61797918 0.81032911 0.07938921
0.49737931 0.36884652 0.16098848
0.77364675 0.41124894 0.23589029
0.0616108 0.06291527 0.24649322
0.3090815 0.75294526 0.12876779
0.32393071 0.58639703 0.23012913
0.36046332 0.06524868 0.10388762
0.66688264 0.93560468 0.0210774
0.59268969 0.2708686 0.05109339
0.29918463 0.36282082 0.1263838
0.39257285 0.05518442 0.01288232
0.9168501 0.0563813 0.16345815
0.6743223 0.69997714 0.12875007
0.63349632 0.39640243 0.10483271
0.38767658 0.21218891 0.12789337
0.90637904 0.76343823 0.08223113
0.664145 0.7057843 0.01139862
0.08220232 0.44961694 0.18321905
0.53389121 0.11340419 0.31028481
0.77248186 0.82789897 0.11697111
0.59694129 0.88209877 0.3109052
0.14195767 0.59841973 0.01864366
0.00872976 0.58730498 0.13823881
0.87353383 0.07880964 0.27573619
0.13391125 -0.03342429 0.01505974
0.56575248 0.21166627 0.1245928
0.36690892 0.71807704 0.26235438
0.50516084 0.64071972 0.23304465
0.67725558 0.55973873 0.26120649
0.43634002 0.52769666 0.18700104
0.87391809 0.20465533 0.12444733
0.32025131 0.05658277 0.3035501
0.4941739 0.63138942 0.30672204
0.29157572 0.89951282 0.3193773
0.95024686 0.34080817 0.23279852
0.54054498 0.34091312 0.23038109
0.11733586 0.22525821 0.21822308
0.91914388 0.41804107 0.29885309
0.82156121 0.25390102 0.27532005
0.7934996 0.64849389 0.31640944
0.24373826 0.38754477 0.30397059
0.40840244 0.2239882 0.32126646
0.83540918 0.93057834 0.22832453
0.8143564 0.03766528 0.04045878
0.36815242 0.48062069 0.05073697
0.64567046 0.72525262 0.27780801
0.43375873 0.19217071 0.05076186
0.26379721 0.09843331 0.22811445
1.00800882 0.24251965 0.08270295
0.02112638 0.51924975 0.2501235
0.61368844 0.16791232 0.23497072
0.80545979 0.79055999 0.2782035
0.57042082 0.11699187 0.01115668
0.18429938 0.51679419 0.13426649
0.49978521 0.80592187 0.03906849
0.05185266 0.87177197 0.06334666
0.32758497 0.2826877 0.20149545
0.60730673 0.88127779 0.14529165
0.02486455 0.30133599 0.14880344
0.43176069 0.19306615 0.2438545
0.5660262 0.02370209 0.20733017
0.67666113 0.54484429 0.10594132
0.51387393 0.64631663 0.14297215
0.95415394 0.16029932 0.21724391
0.80963722 0.41266026 0.12904721
0.25743638 0.62025463 0.0630711
0.17630216 0.89445962 0.14037917
0.65850324 0.98186694 0.09081513
0.84108781 0.55189033 0.24608057
0.36403644 0.92737679 0.0459917
0.7844309 0.96866202 0.3082937
0.67855965 0.22279466 0.3296042
0.86928686 0.19961353 0.03594769
0.09939391 0.10152633 0.06609734
0.38977018 0.47366739 0.30829377
0.65040417 0.59509972 0.32868664
0.08431125 0.3668342 0.2661434
0.4593572 0.62579263 0.02685422
0.51478102 0.84653602 0.23284574
0.17777954 0.80684482 0.26766389
0.08282741 0.71944133 0.08879094
0.7500858 0.39560764 0.03584662
0.94437263 0.61140191 0.19561726
0.3471329 0.89777025 0.25820209
0.84588105 0.28475972 0.17751148
0.22180884 0.46259543 0.05444157
0.66922613 0.07642559 0.16112532
0.05797423 0.75576717 0.18995136
