POSCAR file written by OVITO Basic 3.5.4
1
17.620497 0.0 0.0
0.0 17.620497 0.0
0.0 0.0 42.27
W Nb Hf Zr 
50 50 50 50 
Direct
0.18173046 0.03517811 0.09161183
0.2462262 0.17785678 0.10225903
0.43412967 0.95678511 0.08874985
0.28355975 0.2875485 0.23200195
0.36535709 0.07842503 0.07913237
0.38291208 0.33836581 0.27818438
0.80708515 0.13646025 0.28746399
0.54215009 0.6584702 0.05206757
0.85829902 0.48892248 0.23168744
0.50193913 0.96526589 0.26687992
0.20314226 0.70553915 0.19969465
0.90916508 0.11438266 0.21772211
0.82250242 0.70115616 0.28216766
0.56642909 0.40066179 0.24559462
0.96606123 0.5895108 0.03659355
0.55488682 0.10960578 0.12746766
0.06315162 0.71061522 0.0641177
0.58539845 0.01873503 0.18031655
0.32164655 0.05499416 0.14061415
0.94183063 0.6744956 0.10734873
0.71442099 0.35239827 0.12957199
0.89364872 0.66012532 0.23965346
0.28781358 0.95350778 0.0613193
0.09052208 0.10386515 0.31181396
0.47502195 0.81858664 0.24767845
0.86645307 0.22936653 0.02262826
0.1793621 0.81341822 0.1596699
0.95477461 0.34789082 0.19633027
1.01432975 0.71911576 0.00911935
-0.02742163 0.11294203 0.27938821
0.84391262 0.66241146 0.05129022
0.93347546 0.02006097 0.161527
0.50549839 0.83632595 0.09626695
0.42550384 0.40605109 0.02035873
0.06215279 0.69493073 0.18283161
0.02281209 0.54957588 0.08341845
0.48133804 0.15918369 -0.00317663
0.96931265 0.13120552 0.02536856
0.42852266 0.49302966 0.24428124
0.33810232 0.27225777 0.16896321
0.45530781 0.60667835 0.29457278
0.0859346 0.0771582 0.19882215
0.99425764 0.28080036 0.0084257
0.12292644 0.94505492 0.16625604
0.18278529 0.99260254 0.22057045
0.57114002 0.714345 0.10702281
0.98651718 0.93136981 0.06504355
0.73339131 0.21665252 0.11408125
0.68882623 0.7118077 0.29812131
0.82033946 0.05881244 0.0546429
0.71945505 0.7846311 0.10548851
0.89652795 0.80846148 0.11379866
0.32214005 0.36088519 0.12157756
0.86426954 0.28895006 0.25014739
0.00722544 0.23418201 0.22811161
0.86551293 0.80806799 0.21573639
0.29869037 0.84845397 0.18220302
0.90888358 0.6847294 0.17331449
0.10666194 0.50931301 0.28049452
0.44135544 0.32843915 0.21752227
0.61705339 0.32782363 0.19204446
0.73309146 0.14316666 0.02486871
0.09927938 0.05900998 0.02599556
0.29688761 0.59945463 0.28752083
0.75121584 0.58041561 0.26578127
0.41929411 0.69874365 0.02727001
0.11841233 0.38598533 0.18353902
0.42769809 0.22290112 0.04394319
0.42126371 0.55485289 0.00809397
0.13922847 0.28147948 0.12437016
0.17757546 0.42564277 0.12238101
0.42395079 0.53800989 0.07135317
0.20096339 0.84378648 0.30092551
0.05810009 0.06910637 0.11557241
0.7647611 0.75201034 0.18154969
0.73155282 0.41084614 0.23720819
0.88574064 0.95383205 0.10911558
0.42357121 0.691084 0.11106798
0.72735877 0.09802352 0.23457881
0.93318517 1.00494164 -0.00215377
0.58903495 0.51867417 0.04705952
0.57188761 0.2874645 0.02164223
0.62404399 0.90373676 0.13085721
0.18515294 0.69098195 0.25937578
0.61193001 0.83988628 0.26441646
0.60424031 0.7792742 0.18021364
0.95712646 0.1858962 0.16208143
0.56164209 0.42507058 -0.00746029
0.93877027 0.24803535 0.29745633
0.84036302 -0.00433656 0.22005304
0.80772677 0.66698135 0.11147128
0.23800064 0.10175069 0.03569301
0.11979699 0.65844393 0.12882992
0.59955099 0.57921734 0.29960565
0.69589687 0.84596383 0.3213433
-0.03090697 0.38920361 0.26225277
0.67945398 0.90743154 0.21434161
1.01109133 0.83984672 0.17473963
0.51249952 0.88983908 0.31572181
0.36197396 0.17467553 0.26033633
0.15091652 0.84206021 0.22431393
0.32183805 0.90749482 0.26946767
0.84237779 0.12936274 -0.02796977
0.70326809 1.05218656 0.09758445
0.28650037 0.91640127 0.11785494
0.11280991 0.60879981 0.02073109
0.10304546 0.18208478 0.06218283
0.15879568 0.54019516 0.16929539
0.05421012 0.38116094 0.07277943
0.22561087 0.52936484 0.2336917
0.77064603 -0.06926058 0.15618245
0.96836044 0.35243909 0.13319671
0.40662277 0.00301689 0.02492919
0.19434446 0.08381876 0.16186595
0.30799934 0.02899156 0.20660076
0.24088579 0.96207446 0.00365032
0.47144835 0.43728801 0.3006652
0.51540814 0.50872977 0.11860528
0.22632084 0.78330821 0.0152678
0.49778349 0.62745917 0.18412133
0.91537587 0.43893238 0.03375155
0.4032398 0.17883285 0.11513977
0.44856037 0.15556178 0.1933786
0.5098262 0.90145642 0.20090643
0.92988505 0.55539085 0.28469664
0.82655623 0.42993029 0.16521453
0.56789457 0.67992529 0.24971601
0.34756021 0.58052635 0.18186428
0.71541954 0.70596407 0.2315784
0.0875984 -0.03820486 0.27914767
0.48811422 0.28476823 0.14629036
0.73438242 0.08047331 0.16585507
0.15558594 -0.02846929 0.34351693
1.15223171 0.29989435 0.01507168
0.79715255 0.58332761 0.19158712
0.52252592 0.23379985 0.25106467
0.75872236 0.88059341 0.26206638
0.54970872 -0.00707646 0.00716918
0.39515307 0.77448243 0.29282554
0.28826544 0.53946049 0.1164397
0.69956679 0.29093779 0.03108627
0.57010988 1.07494262 0.24447646
0.69666384 0.49700778 0.1109183
0.24006013 0.72388976 0.32564974
0.7636487 0.57672207 0.33084286
0.66812997 -0.0063172 0.30279339
0.14717977 0.23633166 0.19240411
0.14233564 0.90627018 0.07706113
0.59080289 0.37878716 0.08849557
0.29591553 0.41429334 0.18293326
0.2982976 0.68976449 0.14014635
1.02845566 0.71268662 0.2487967
0.27579959 0.28629881 0.05486368
0.22763671 0.23223619 0.29504972
-0.06992939 0.83356755 0.27247772
0.75205071 0.98975627 0.00227144
0.29227073 0.42930604 0.05173496
0.59981823 0.17813751 0.19295525
0.54964011 0.74599068 0.32227009
0.44470888 0.79551621 0.15663763
0.59144427 0.62050731 0.00175444
0.27384976 0.63015339 0.05030786
0.83278613 0.40501113 0.29650876
0.34778677 0.68354193 0.23632498
0.67289432 0.43612993 0.29729948
0.43234109 0.34246821 0.07688323
-0.02253063 -0.03318167 0.3311931
0.3489715 0.79686551 0.05709098
0.78298551 0.27382042 0.18354505
0.52110882 0.10662091 0.06144633
0.28446443 0.41323919 0.30701239
0.42596913 1.05717381 0.30915248
0.18917888 0.13289124 0.24721077
0.46264406 0.45174043 0.18454845
0.68822855 0.69984171 0.04317277
0.58827941 0.23114436 0.08932604
0.88081987 0.496783 0.09978315
0.79184827 0.904523 0.06403029
-0.01714627 0.53000024 0.16154702
0.45265954 0.96843456 0.1493162
-0.01404842 -0.03290536 0.22759327
0.05426853 0.80554976 0.1165946
0.60941362 0.95176485 0.06436731
0.14842203 0.34708547 0.25153356
0.94105468 0.19880024 0.08675998
0.09405589 0.8586452 0.01469217
0.84355682 0.32333949 -0.02181795
0.92087066 0.79928135 0.04538968
0.8467223 0.10767266 0.12062499
0.24204422 0.04915017 0.30004931
0.51423808 0.81164292 0.03803521
0.04515714 0.55882556 0.22924402
0.77454213 0.52992413 0.04771279
0.81471055 0.35935361 0.07610495
0.62687043 0.53233509 0.23765732
0.32874061 0.90325309 0.34060061
0.08913108 0.25971435 0.30510297
0.69800646 0.24491616 0.24277038
0.63039215 0.60182458 0.17025772
0.8425121 -0.00791886 0.29210655
