POSCAR file written by OVITO Basic 3.5.4
1
17.616934 0.0 0.0
0.0 17.616934 0.0
0.0 0.0 42.27
W Nb Hf Zr 
50 50 50 50 
Direct
0.65373956 0.82159069 0.05284549
0.14166083 0.23224308 0.12101908
0.783819 0.94106033 0.0406225
0.24148111 0.45632701 0.29178779
0.52204552 -0.0637522 0.09019864
0.51963858 0.33420748 0.01952987
1.1038912 0.46064822 0.292392
0.73509807 0.01402873 0.14376474
0.79113711 0.6960551 0.25557599
0.59221238 0.93280022 0.15584741
0.744236 0.56454244 0.20815217
0.46207565 -0.0186723 0.19355147
0.93739222 0.52840332 0.08747512
0.45204692 0.63991951 0.28418239
0.83261567 0.69393138 0.1985573
0.39474369 0.11806363 0.00811631
-0.00334545 0.05590939 0.24981438
0.59549343 0.03909992 0.18977507
0.3452054 0.75627763 0.27887815
0.69378471 0.57826404 0.26863622
0.66153147 0.66279031 0.16702716
0.66764029 0.80850093 0.17340368
0.13841195 0.75092198 0.24076962
0.41024668 0.37373808 0.0643268
-0.05022559 0.66192646 0.15159265
0.91190725 0.56585724 0.21026065
0.11665911 0.12263387 0.16833046
0.06861628 0.05015407 0.1136457
-0.00904039 0.51786081 0.14407484
0.95946622 0.53715211 0.27691408
0.36792488 0.66261448 0.20455923
-0.0693343 0.66143914 0.09082702
0.73764881 0.81601579 0.23178286
0.74908695 -0.02379362 0.24332938
0.83087428 0.6025642 0.12007212
0.53840702 0.57480035 0.124281
0.86803342 0.22865921 0.07481949
-0.04868788 0.81209886 0.14826599
0.2903107 0.25833938 0.09268269
0.40025256 0.40834183 0.2102525
0.25372418 0.84117917 0.14829712
0.03426493 1.11219987 0.31156092
0.9396719 0.29141531 0.19860151
0.30216873 0.52340711 0.20556275
0.56057494 0.18652704 0.1822999
0.52357431 0.82424012 0.18055912
0.64630538 -0.05509833 0.04444544
1.09942906 0.42019543 0.12023634
0.43538537 0.24700851 0.04239266
0.06666882 0.20956945 0.26948554
0.77028343 1.05053857 0.07571929
-0.01592842 0.36436689 0.1431881
0.67777857 0.12103687 0.05482754
0.51627037 0.56026845 0.23464099
-0.00117345 1.15928375 0.21492637
0.89352769 0.97082721 0.22465658
0.49703194 0.22351593 0.11776972
0.68910068 0.71431809 0.01190626
0.23076713 0.87184835 0.20888747
0.69778781 0.16340828 0.17811966
0.53793914 0.36536724 0.17182212
0.17243896 0.96530675 0.06013934
0.39040902 0.25000982 0.16955932
0.6501565 0.26769441 0.1358711
0.92824824 0.81179791 0.2094382
0.63343498 0.69657869 0.22857163
0.31842226 0.62515321 0.02599669
0.25706137 0.68352074 0.24709499
0.33337186 0.9712555 0.17166222
0.09260186 0.60808282 0.28663746
0.39019663 0.71608435 0.13096779
0.82549135 0.49178295 0.25542523
0.25383586 0.35003063 0.32429289
0.18297794 0.99041099 0.14126764
1.27988824 0.41101771 0.02483224
0.67634731 0.27877875 0.28143611
0.67546524 0.14971465 0.24235972
0.49521169 0.66049007 0.182505
0.55669447 1.16211684 0.01575929
0.25061791 1.10957147 0.13065323
0.06454206 -0.2712998 0.07492268
0.62421123 0.3050957 0.21576107
0.96763247 0.33997186 0.25821232
0.06196867 0.92100761 0.23823008
0.47300773 0.6829738 0.33651458
0.60212231 0.53098085 0.17967942
0.01037632 0.27898639 0.08227216
0.51418522 0.23501856 0.28412617
0.76909181 0.83572185 0.00735746
0.9818182 0.13442529 0.05384722
0.8458468 0.47009744 0.1270845
0.15138455 0.489873 0.17951945
0.39755504 0.56439922 0.0969358
0.72897686 0.17848328 0.10356249
0.43414244 0.52254077 0.17066004
0.13229357 0.7362785 0.13262618
1.08255312 0.45345204 0.05347776
0.80227993 0.74126001 0.05953876
0.16705686 0.34969345 0.26355317
0.3924122 0.50628167 0.26682391
0.87622631 0.1850511 0.26266613
0.13835946 0.16524912 0.05323699
0.24661285 0.49520139 0.07681084
0.24100223 0.83018237 0.08632164
0.16811632 0.56300432 0.02638671
-0.01756073 0.60675669 0.03978881
0.37655712 0.37402925 0.13055459
0.22784007 1.01488295 0.00861294
0.0963134 0.8222518 0.18223632
0.00869141 0.96176697 0.30307535
0.88411023 1.00858717 0.31178961
0.78433318 0.29716319 0.21610361
0.42253085 0.88831937 0.12753706
0.45748572 -0.17859434 0.32378176
0.34619878 0.1124007 0.19764364
0.90064005 0.82790958 0.08991564
0.30903639 0.13766695 0.06222829
0.68767224 0.53315675 0.11550095
0.91928923 -0.18932293 0.02283738
0.23416282 0.69046011 0.17719275
0.70009874 0.40446753 0.17607838
0.30250667 0.60608679 0.30435801
0.23663048 0.82271739 0.02617695
0.26023344 0.67551021 0.08180925
0.67242135 0.4184083 0.24916249
0.48787441 0.4038655 0.26564345
0.48261236 0.10506364 0.06589223
0.5982774 0.47949112 0.05890484
0.98645791 0.66625806 0.23547167
0.09306256 0.30439968 0.19529608
0.2702306 0.25985409 0.02214852
0.73626729 0.88574193 0.10459009
0.37339424 0.81033694 0.19405326
0.61240199 0.25985578 0.0617991
0.81250489 0.76773743 0.13877299
0.74527184 0.10422484 0.28912598
0.4135426 0.79692738 0.06121686
0.66744114 1.04130191 -0.00277489
0.38260305 0.36415222 -0.01543163
0.26605599 -0.00434673 0.25057076
0.59603052 0.66695731 0.30259284
0.52618531 0.76522157 0.25125375
1.02244111 0.2708248 0.0243457
0.28639141 0.17901007 0.26648756
0.24990843 0.86148015 0.29372762
0.53859384 0.38653912 0.10860431
0.16495815 0.34617442 0.07201491
0.7404868 0.34827369 0.08113258
0.0533741 0.460009 0.22087974
0.89728313 0.43380398 0.19386015
-0.03595247 0.24386265 0.31450109
0.15665662 0.2278309 0.31937871
0.42752087 0.0975089 0.12517316
0.42968756 0.14024399 0.30529764
0.87261536 0.40021968 0.29213622
0.68733719 0.69121121 0.10137778
0.43354811 0.52429089 0.0318944
0.37428241 0.46245432 0.33402507
0.74307283 0.252118 0.02240844
0.91146606 0.81995504 0.2656562
0.05385904 0.78015958 0.30336071
0.09962772 0.57775093 0.09573165
0.91663004 0.66688924 0.30778193
0.84349308 0.90875127 0.16862844
0.53365625 0.53159282 0.29563211
0.24416879 0.55158511 0.136588
0.14618914 1.02041471 0.27883434
0.0610775 0.86010896 0.02481417
0.21706673 0.48599981 0.34718285
0.60699988 0.90450059 0.22234475
-0.12128139 0.39397788 0.05394265
0.3887355 0.92088754 0.26537454
0.30228519 0.06228473 0.31723611
0.78981639 0.54466739 0.06114432
0.55674257 0.78995994 0.12083431
1.00086509 -0.01736301 0.17117253
0.60202013 0.06508493 0.27954184
0.43967062 0.24714756 -0.03573013
0.2180928 0.32438595 0.15476463
0.81068148 0.07372835 0.19022497
0.29726803 0.26811456 0.21531885
0.4977964 0.98827173 0.02206029
0.48249408 0.14529972 0.23411128
1.07879946 0.6252465 0.18477001
0.71003971 0.86385245 0.29140484
0.9669436 -0.03027904 0.06145473
0.35961104 0.32255385 0.28027743
0.55474829 0.33901327 0.33085632
0.37654926 -0.0409754 0.05585616
1.07195732 1.02179891 5.0749e-04
1.07504387 0.878846 0.11435011
0.11786369 1.02247456 0.36086958
0.16599542 0.54743315 0.23349187
0.87233639 0.12884879 0.01487109
0.89883682 0.05946955 0.11523053
0.15220296 1.04819463 0.217084
0.81844006 0.28890861 0.14771113
0.53953422 0.67901559 0.07099312
-0.00998414 0.19602598 0.14065345
0.59809513 1.08727141 0.11882059
