POSCAR file written by OVITO Basic 3.5.4
1
17.616934 0.0 0.0
0.0 17.616934 0.0
0.0 0.0 42.27
W Nb Hf Zr 
50 50 50 50 
Direct
0.5881098 0.875347 0.06988828
0.15819523 0.18678236 0.16065853
0.74181709 0.86399945 0.07723144
0.17673491 0.49020125 0.22115206
0.51604958 0.02815908 0.08102884
0.55050859 0.40737815 0.03108949
0.95023752 0.4341878 0.29878374
0.8156549 0.03572903 0.17304803
0.85671283 0.7188536 0.26028967
0.55471923 0.92798185 0.12822332
0.66752736 0.50020529 0.17578776
0.48511625 -0.02718092 0.18960609
0.9586159 0.5356662 0.08369347
0.47678078 0.55315981 0.28453093
0.81063632 0.76055878 0.20838052
0.40848963 0.20288545 0.01990816
0.12559565 0.07243091 0.26281952
0.55430571 0.08944195 0.15112989
0.41349537 0.91576817 0.25924136
0.65105253 0.56385766 0.28758516
0.77095578 0.57894172 0.15422967
0.6576581 0.66920147 0.18875733
0.05411739 0.72001631 0.27881693
0.46412303 0.3660296 0.11584379
-0.05635862 0.68245746 0.18124595
0.84809725 0.5959441 0.20122679
0.1942245 0.11066422 0.20606023
0.15724079 0.05033101 0.14046905
0.00993508 0.51773396 0.18107822
0.99742186 0.4241467 0.24483312
0.39281803 0.62550561 0.24388453
-0.03094194 0.66847374 0.10759481
0.85701702 0.87373917 0.26446413
0.81610784 0.02546867 0.27155247
0.90512274 0.56519472 0.14248546
0.54032751 0.62716208 0.07481448
0.89547686 0.23279234 0.08772667
0.00220164 0.79433994 0.12622343
0.31813184 0.34552285 0.08905343
0.39471248 0.33853013 0.18965712
0.28650542 0.80685323 0.11070036
0.0437417 0.9949441 0.31003251
0.89174021 0.29701244 0.2162791
0.31719115 0.48397131 0.2029983
0.46519202 0.12394554 0.20436769
0.57861105 0.88121654 0.18855785
0.53468484 0.1561042 0.05574419
1.05994889 0.44417708 0.05732908
0.42410178 0.37085492 0.04297532
0.09289509 0.19699876 0.29707436
0.761677 1.13813837 0.05782683
-0.03061673 0.44232423 0.13056415
0.84951987 0.25865915 0.02272168
0.54910837 0.57893775 0.22421084
0.0692858 1.05024135 0.20816383
0.93126336 0.97888636 0.2236049
0.61765985 0.17962419 0.1187711
0.57605754 0.76551657 0.02976586
0.30937706 0.77865804 0.26333589
0.75858838 0.1556802 0.14932824
0.47853985 0.23579097 0.1460704
0.1713565 1.03170055 0.0541092
0.28845984 0.25846865 0.15439511
0.55942577 0.29933763 0.06788527
0.97656236 0.76716125 0.22588686
0.62725812 0.77186571 0.2351528
0.28488889 0.53998199 0.00901743
0.23972692 0.62666381 0.23114276
0.29895504 0.88989043 0.2010603
0.06078499 0.50234916 0.28634617
0.30339147 0.72337608 0.20154784
0.72544964 0.65430365 0.24298023
0.30806462 0.34311134 0.25337281
0.18246856 0.90398042 0.1595742
1.1602874 0.46910345 0.00458777
0.68595008 0.33477629 0.23860621
0.64627127 -0.00158494 0.17244713
0.52749619 0.68894652 0.17678003
0.46390593 1.09808585 -0.00822926
0.29892524 1.06376755 0.17110438
0.06288516 -0.08187123 0.08506975
0.62441133 0.22979138 0.18521987
0.97376742 0.27036669 0.27717592
0.03411644 0.88445956 0.26481565
0.35652875 0.65827427 0.29882565
0.62378532 0.61111194 0.1321254
0.01070565 0.30094921 0.06972507
0.64152221 0.19692426 0.25613399
0.6766234 0.87799856 0.00712381
1.04505189 0.06757179 0.09278546
0.79343974 0.46155306 0.10761983
0.18479878 0.43033246 0.16139743
0.42542879 0.66536239 0.11617768
0.72350878 0.26863755 0.08872024
0.41956238 0.58258861 0.18451043
0.12514025 0.74505356 0.13966684
0.99257079 0.34194289 0.01104211
0.73863908 0.75318778 0.01901597
0.14555963 0.36979231 0.26032379
0.46412579 0.44356288 0.23510827
0.95765087 0.09498535 0.25904357
0.14400232 0.18254148 0.06182853
0.22487691 0.47359444 0.08041348
0.27056714 0.97732791 0.11358323
0.11746345 0.73797752 0.07359822
0.12472257 0.57858097 0.03902874
0.32514911 0.4376093 0.13165474
0.1366952 0.89514802 0.01062192
0.04734862 0.88805555 0.1904303
0.02583274 0.86751351 0.34815881
0.90142762 0.94461527 0.31731094
0.74948268 0.34366803 0.18527823
0.4313846 0.82832483 0.15667145
0.42185278 0.00747404 0.30636044
0.32071801 0.21026585 0.21985338
0.87410409 0.76171041 0.06804184
0.27578512 0.1275558 0.10582456
0.61940865 0.47709374 0.0800284
0.85087178 -0.1383297 0.01471896
0.14607468 0.76999644 0.22984131
0.61677443 0.36330624 0.12963415
0.30383803 0.5068479 0.27300077
0.25916918 0.88678414 0.05221122
0.23246952 0.6449717 0.08104201
0.72167193 0.51004686 0.23639341
0.5571062 0.38514317 0.18503243
0.4028677 0.23576003 0.08349632
0.69721963 0.55899914 0.0364975
0.91667861 0.57112056 0.26040198
0.05840631 0.20571341 0.22296286
0.2625148 0.23857404 0.02464406
0.71856023 0.88889367 0.14798345
0.45784674 0.77311622 0.22965614
0.64433535 0.18759855 0.0229051
0.82087967 0.73947415 0.13665748
0.827876 0.19045189 0.26559274
0.41467196 0.84986695 0.08705436
0.56793148 1.0142113 0.03012032
0.30375924 0.39160151 0.01058807
0.33991578 0.03156212 0.23567456
0.54362695 0.56673083 0.34219034
0.57875455 0.69164892 0.28725198
0.93066108 0.12557015 0.04068439
0.24950619 0.20881165 0.28454987
0.46229202 0.79909116 0.29993827
0.50853266 0.5071428 0.12781373
0.13717069 0.3216992 0.03631098
0.71470435 0.39341204 0.03325644
0.035415 0.35813069 0.17727957
0.86676546 0.44747335 0.20004291
-0.04027124 0.13521464 0.32004272
0.16570022 0.10354353 0.33113209
0.41502982 0.05444286 0.13581055
0.45739343 0.16969196 0.28525562
0.84714037 0.37275526 0.26016198
0.69746536 0.69236658 0.0705055
0.40277748 0.53172594 0.06658155
0.42728849 0.39226983 0.29335063
0.43757055 0.30950056 -0.02405585
0.90410691 0.7874488 0.3195827
0.17726752 0.63678554 0.30223906
0.09572047 0.55769356 0.11130769
0.76944993 0.64300783 0.30928198
0.88095402 0.8652412 0.17715288
0.76809128 0.48072031 0.29665676
0.28547889 0.63395176 0.15059223
0.27849256 0.98095255 0.31046944
0.01497999 0.82927836 0.03222653
0.23151222 0.37010764 0.31263035
0.71434788 0.89785816 0.22676014
-0.11462637 0.42524092 0.04314533
0.58688383 0.88681085 0.27274202
0.35675989 0.15827316 0.32747107
0.82444407 0.58148665 0.06844583
0.57052879 0.75305172 0.11768414
0.97640184 -0.01682749 0.14997684
0.74986108 0.15733381 0.21546519
0.53851718 0.62171273 0.01233104
0.1429684 0.32988654 0.11565384
0.9154488 0.14535438 0.19045373
0.19680547 0.31126779 0.19336768
0.42863037 0.90097177 0.02162836
0.56585798 0.05303502 0.24291098
1.04222985 0.59956299 0.23086142
0.72137685 0.79585044 0.29273787
0.71371549 -0.00317848 0.03294416
0.49375109 0.28066496 0.2336731
0.60607938 0.39982554 0.28523539
0.38167776 0.055766 0.05384641
0.9812421 0.98432545 0.02897965
0.88141493 0.91609098 0.08851489
0.17441683 0.80017919 0.30300221
0.14488361 0.58168723 0.17332088
0.76453508 0.1386082 -0.01690143
0.85884692 0.0621581 0.10450875
0.20250292 0.94311798 0.24989133
0.8336118 0.32608094 0.13504187
0.38530694 0.71356984 0.05124521
0.01909296 0.18948988 0.13008267
0.68549314 1.03303451 0.10334681
