POSCAR file written by OVITO Basic 3.5.4
1
17.670372 0.0 0.0
0.0 17.670372 0.0
0.0 0.0 42.408
W Nb Hf Zr 
50 50 50 50 
Direct
1.0149184 1.02705388 0.19214572
0.14843248 0.52886409 0.16425178
-0.01585887 0.31007543 0.16890655
0.9490243 0.78009231 0.29995826
0.58423808 0.70448241 0.08215309
0.62113872 0.33419233 0.13539563
-0.08103759 0.4056998 0.13230519
0.23991164 0.86207384 0.26932788
1.10305099 -0.01060902 0.31063599
0.20812012 0.57495071 0.23885321
0.34717172 0.61806319 0.23871418
0.71690408 0.63563842 0.05754166
0.31453392 1.04657848 0.05400077
0.42497788 0.35093259 0.24820201
0.56232093 0.85269431 0.30084482
0.72245887 0.33928915 0.25951904
0.23321368 0.16621617 0.03937213
0.64706795 0.27502643 0.18821915
0.92305191 0.50301008 0.07298385
0.73717495 0.16210248 0.25761387
0.72749985 0.16257161 0.14785458
0.42516071 0.57622353 0.02039467
0.02303655 0.39102104 0.32574317
0.02683331 1.03719912 0.06868622
0.3717405 0.2160473 0.16919248
0.86657803 0.4369796 0.33160193
0.11742753 0.06716403 0.02377554
0.85422009 0.04464892 0.24239503
0.707367 0.38966561 0.20174239
0.28188213 0.49794209 0.17890669
0.9147096 0.93997351 0.13160945
1.09913442 0.84932967 0.2953866
0.63240438 0.51718839 0.2965359
0.98701554 0.98920005 0.24672488
1.01005471 1.17991793 0.18143946
0.69756061 0.6196445 0.27938085
0.56102137 0.25606984 0.08487811
0.13488844 0.37532394 0.05801233
0.30996336 0.32288478 0.0512499
0.38760883 0.46778997 0.07433564
1.013484 0.80976858 0.23873907
0.60476784 0.59843548 0.21218305
0.63394373 0.11982399 0.0911664
0.04154656 0.39594609 0.257077
0.85912324 0.55532856 0.28867327
0.44801381 0.7280986 0.06016564
0.95833508 0.14246165 0.23718857
0.32252912 0.96302037 0.15276581
0.34881769 0.81336522 0.17255016
0.45948262 -0.02634613 0.275781
0.63253268 0.14244463 0.03685634
0.60525731 0.55934668 0.10709131
0.19447964 0.96235912 0.01919183
0.27456841 0.52250258 0.12187571
0.01345263 0.52830353 0.31004496
0.09458282 0.89649437 0.07282533
0.83625014 0.38987604 0.06986036
1.04274486 0.24593465 0.29914873
0.7274076 0.95980937 0.14332205
1.01766881 0.67883771 0.27429416
0.52612695 0.63952774 0.15598185
0.82289165 0.26220743 0.05100799
0.16833987 0.60149913 0.30983167
0.19417572 0.25257813 0.08482242
0.17801837 0.0809718 0.15416673
-0.01945335 0.88587274 0.184354
0.56884714 0.4830508 0.15984591
0.25803759 1.01215093 0.28088217
0.53932121 0.39894894 0.0889847
0.28367844 0.07110808 0.21992888
0.22294247 0.50072651 0.06161497
0.74925272 0.42774078 0.30535318
0.7117641 0.70378391 0.13881922
-0.04847076 0.05258838 0.01632638
0.58249351 0.98943109 0.27975164
0.32284996 0.46873482 0.01458173
0.01730307 0.30091459 0.10012488
0.52633669 1.03202055 0.22453382
0.16362196 0.43859478 0.22276174
0.88225707 0.17051791 0.28189428
0.13452541 0.11079029 0.22578392
0.30700414 0.26167722 -0.01423971
0.25040242 0.65909586 0.17509747
0.92203038 0.64620642 0.3298777
0.97704494 0.57334254 0.12223936
0.25554628 0.71754048 0.26849391
0.86461272 0.67318904 0.1395096
0.22801647 0.36707821 0.00488571
0.76596688 0.11308985 0.04748829
0.10360933 0.22169182 0.03354338
-0.02070275 0.08298106 0.2918756
0.69051747 0.53923333 0.17421314
0.44669003 0.47793577 0.27051933
0.80855941 0.83646099 0.10136315
0.24520316 0.88387092 0.10319833
0.92862754 0.15689919 0.06285208
1.10966041 0.90104202 0.2297521
0.84595307 -0.02656822 0.04779911
0.35643951 0.32455572 0.29264517
0.69548743 0.80773836 0.05864987
1.23695486 0.64402427 0.36253605
0.40090445 0.18688124 0.03031449
-0.02734321 0.3364703 0.02881914
0.81601146 0.0628624 0.10970616
0.41967582 0.17812484 0.26392256
0.0892047 0.96756059 0.12909311
0.35109529 0.89847246 0.22712415
0.89127591 0.74308422 0.21157994
0.08171909 0.45919297 0.10787315
0.10769583 0.22038328 0.13867481
0.20606718 0.75811635 0.3218035
0.5895314 0.30363054 0.24443026
0.42177097 0.46611696 0.14615308
0.24455033 0.18459599 0.28685026
0.81776327 0.52402937 0.02010417
0.09032627 0.27369124 0.22915803
0.44817577 0.5907597 0.08682851
0.05655299 0.54268727 0.24647313
0.31679263 0.32657992 0.20805022
0.80759064 0.84873685 0.16864761
0.86186408 0.54782846 0.17189003
0.58203779 0.57831582 0.03042863
0.33619693 0.8694323 0.04792859
0.14208937 0.81629608 0.15774253
0.46250004 0.76998754 0.13994657
0.4473079 0.50032256 0.20858305
-0.12093815 0.66639176 0.08262102
0.63357525 0.47296902 0.24150628
0.50892633 0.61774715 0.2680772
0.18515641 0.96843156 0.18774138
0.549958 0.17464563 0.14403275
0.49044185 0.33580213 0.16799666
0.50735428 0.04735764 0.08236133
0.72788149 0.89270039 0.30597028
0.73604177 0.88278812 5.0426e-04
0.72050147 0.24467795 0.09447465
0.29137054 0.45513896 0.2528585
0.6296015 0.71777141 0.32255304
0.29126149 0.75778781 0.12345382
0.00955588 0.45415272 0.18784714
0.54156055 0.72960028 0.00532366
0.7292465 -0.00732373 0.26335267
0.17890024 0.10665409 0.35179948
0.37407017 -0.09951385 0.32189523
0.48151034 0.72724343 0.21356793
-0.01159244 1.08165307 0.13371303
0.04527228 0.48640296 0.03945482
0.68869975 0.97108393 0.06380938
0.43406794 0.80294784 0.27940312
0.88646047 0.21368775 0.12937732
0.87886414 -0.03251807 0.30009849
0.14200645 0.71644228 0.2189741
0.37735025 0.06461818 0.32051141
0.24510487 0.26042519 0.34750473
0.76354834 0.55190841 0.34451089
0.66136434 0.39288906 0.06160869
0.91241417 0.55675891 0.23203995
0.64162355 0.77507607 0.26079808
0.36543017 0.71227684 0.3266676
0.45254377 1.00435092 0.01971081
0.29424827 0.65004551 0.05488774
0.85396643 0.03408998 0.17850549
0.44889868 0.41270236 0.02828659
1.02600676 0.94535511 5.243e-04
0.85552335 0.40784763 0.21303099
0.74480574 0.65739184 5.249e-05
0.81796862 0.72834098 0.28065155
0.45854791 0.06582487 0.16299958
0.76978432 0.63418106 0.21181886
0.61925813 0.83845349 0.13591255
0.16866853 0.22616259 -0.03183002
0.629505 0.76194594 0.19500644
0.68696937 0.10384863 0.20551981
-0.04457734 0.84465173 0.09331946
0.56903903 -0.02185733 0.12560493
0.20007839 0.04431973 0.08428699
0.79008732 0.25055246 0.21158756
0.15827962 0.69860574 0.10880068
0.15562008 0.37574701 0.29858267
0.2569472 0.35193016 0.12679477
0.52888223 0.87014902 0.05672948
0.50596965 0.91012579 0.1812552
0.3046244 0.04589099 -0.015542
0.80345191 0.2976838 0.33410853
0.31210827 0.56342091 0.30404998
0.82362289 0.77827328 0.04238624
0.38056329 0.62552951 0.15343692
0.41240101 0.91173895 0.10238104
0.57781002 0.14567396 0.2725344
0.32095501 0.14637159 0.10870876
0.78857307 0.54114196 0.11294682
0.51993114 0.19213413 0.21000657
0.77903876 0.33679699 0.15261657
0.41495628 0.3087856 0.09784337
0.0252479 0.65582307 0.17333955
0.84351174 0.89047563 0.24553064
0.91256321 0.35634351 0.27945713
0.67380434 0.93356857 0.19856596
0.21971442 -0.0732137 0.34039998
0.05486084 0.74584958 0.34204733
