POSCAR file written by OVITO Basic 3.5.4
1
17.520744 0.0 0.0
0.0 17.520744 0.0
0.0 0.0 42.048
W Nb Hf Zr 
50 50 50 50 
Direct
0.67297236 -0.01567576 0.02505075
0.20695578 1.00470852 0.14790895
0.78914873 -0.03433546 0.06532935
0.06044734 0.34178412 0.24258146
0.49878697 0.22440363 0.19546341
0.17616946 0.20386825 0.13873371
0.80281151 0.37738254 0.07686616
0.36199593 1.01832074 0.26678957
0.876034 0.76040041 0.26479706
0.38650003 0.79289299 0.33559059
0.67035394 0.58273298 0.16837017
0.5346311 0.02576017 0.28775573
1.07755521 0.41880919 0.08039982
0.4763418 0.45185084 0.12314096
0.49064015 0.4843958 0.06309088
0.58962748 0.86663347 -0.00479931
0.95678073 0.14571253 0.15072614
0.67460224 0.1293042 0.14528897
0.80975357 0.87095392 0.16591763
1.07361058 0.28305672 0.04338034
1.03247302 0.75986271 0.0666703
0.69767013 0.71844493 0.19490044
0.90742723 0.54735141 0.29454692
0.25468177 0.35280149 0.17948168
0.02713297 0.92115479 0.0438228
0.86502881 0.98192161 0.12652355
0.09841221 0.06431129 0.12048773
0.39173124 0.08534695 0.12829854
0.00194773 0.74320413 0.20780223
0.95577631 0.25168583 0.27540303
0.01643496 0.62378122 0.26580889
-0.0476706 0.86000862 0.14610372
0.70571978 0.96107368 0.18606367
0.61748108 0.01102892 0.24596823
0.85403033 0.72114426 0.19057789
0.67461119 0.53085167 0.09627581
0.94374968 0.38084764 0.08146857
0.33659205 0.81966576 0.07518997
0.76908383 0.24334639 0.04621307
0.23740228 0.56291263 0.25925506
0.2400605 0.6875687 0.08001997
0.23832908 0.05262925 0.2368685
-0.01797973 0.10649076 0.30344066
0.01068081 0.81780808 0.25299072
0.65442893 0.06577988 0.07676159
0.65350743 -0.21201405 0.04164535
0.97877842 1.00376253 0.15971236
0.91703934 0.97902471 0.28161265
0.26019808 0.10119602 0.10390279
0.70720787 0.61170999 0.30458562
0.60872613 0.4753122 0.02456585
0.98801302 0.39757091 0.19214286
1.16555449 0.37303984 0.02352178
0.53632826 0.28525972 0.25244066
0.80227028 0.0919917 0.02506741
-0.08415197 0.85230873 0.06763926
0.71568014 0.9697192 0.12807937
0.24314997 0.6379699 0.13639275
0.20439077 0.35083878 0.10534394
0.68201699 0.47260402 0.21022221
0.51475924 0.59441594 0.11551934
0.11220235 1.13639052 0.27116389
0.16229181 0.25799943 -0.00893159
0.55014956 0.30492385 0.1401666
1.0047825 0.53380397 0.04125592
0.35310648 0.9449068 0.10880568
0.41461882 0.18038374 0.0587028
0.26357936 0.30532516 0.29306157
0.16772976 0.73683936 0.2129829
0.13723369 0.10624578 0.04819726
0.46698471 0.67460096 0.34441833
0.69902483 0.75159426 0.2774192
0.6997386 0.36586314 0.02347627
0.17745887 0.8252073 0.06844193
0.59719356 0.60033114 0.04969621
0.64621405 0.44355074 0.14650599
0.71557974 0.19778231 0.22561926
0.48981489 0.83673475 0.1174505
0.32576126 0.73283707 0.19509851
0.59642587 0.11737036 0.20153925
0.79581331 0.10669263 0.09208992
0.52315304 0.15174372 0.12801398
0.26044539 0.1157126 0.01358154
1.04544529 0.9896428 0.25688953
-0.00605839 0.74419602 0.31035671
0.41020125 0.84463987 0.17697471
0.12216427 0.07935367 0.1854322
0.80846416 0.41909883 0.19084994
0.74925595 0.68226427 0.05823881
0.83242143 0.58052679 0.17912608
0.62506089 0.62607061 0.23243516
0.03906005 0.20062867 0.18708481
0.05923207 0.23396728 0.10810031
0.51494952 0.69762975 0.17340337
0.38771296 0.37931843 0.25224098
0.31549021 0.11181637 0.1874272
0.98667551 0.80714655 0.00541701
0.95980385 0.6985315 0.14019829
0.53389874 0.62450721 0.29271684
0.71311337 0.5033306 0.27373579
0.16853615 0.48512126 0.16644792
0.10770661 0.29783795 0.29797854
0.20257724 0.40761119 0.25083256
-0.04426589 0.34373056 0.32037167
0.39718769 1.00170989 0.19169313
0.32295021 0.92183373 0.00156691
0.3611241 0.22487069 0.14367598
0.34327021 0.24625742 0.21774313
0.24841616 0.81139182 0.13383456
0.85405314 0.67084122 0.32263367
0.42936432 0.92698493 0.31720039
0.80322427 0.46107128 0.1279503
0.62388096 0.90047101 0.08368469
0.62295834 0.32989332 0.19351289
0.73629939 0.27538023 0.13788604
-0.058514 0.10169189 0.226592
0.21091015 0.95664104 0.07862646
0.52399336 0.50776596 0.18725576
0.52037219 0.04937317 0.06835639
0.49546049 0.70204699 0.06924084
0.46608226 0.31747614 0.07416182
0.33008626 0.47448147 0.21147966
0.53768229 0.0186981 -0.00617754
0.91148943 0.96767271 0.01105747
0.7869651 0.63615997 0.12489234
0.62828769 0.3785139 0.08594667
0.44955903 0.35687396 0.18345649
0.77778644 0.82005793 0.09627348
0.63151544 0.74402292 0.33379986
0.10642511 0.5486829 0.22979404
0.27670072 0.15672252 0.29281336
0.63191638 0.82274739 0.1599312
0.58591131 0.87249506 0.29736374
0.19662553 0.51695489 0.05977402
0.91175106 0.65778807 0.06561122
0.72557986 0.34694387 0.24812357
0.50208722 -0.12588958 0.04671642
0.65760461 0.16360314 0.01302246
0.36263947 0.5867459 0.07316877
0.42296742 0.60987371 0.23861684
0.81053748 0.61919514 0.25589097
0.47957394 0.75419471 0.28473902
0.93456627 0.23270096 0.0727951
0.22221361 1.0004779 0.30246836
0.45129439 0.60993035 0.01603161
0.33610183 0.65175633 0.30871669
-0.13046879 0.41054667 0.26118959
0.54779549 0.4546696 0.26424898
0.16844392 0.23597825 0.21273612
0.78872206 0.30110939 0.31308575
0.8803011 0.25377853 0.21095456
1.0891354 0.89149987 0.31620063
0.1165261 0.61495539 0.31117876
0.13615055 0.45342067 0.3306182
0.79535569 0.03627212 0.23923062
0.79048966 0.8053898 0.02084735
0.33636272 0.4277812 0.13353648
0.57025288 0.7979587 0.21710454
0.37794146 0.02815434 0.04844871
0.0929465 -0.116723 0.18446677
0.25421335 0.23839421 0.06423497
0.04168457 0.59179015 0.17687413
0.63120821 0.16730688 0.27631705
0.9184924 0.90309313 0.22200751
0.79260799 0.4981058 0.33494464
0.37237663 0.58919329 0.16883967
0.54078983 0.73465749 -0.00495536
-0.05702133 0.02964071 0.06401805
0.46108297 0.12069792 0.24971697
0.72225279 0.88109644 0.23704641
0.11278495 0.34340531 0.15572405
0.41974674 0.26265982 0.29447776
0.67477827 -0.01429424 0.31431396
0.81976163 0.51557149 0.05405394
0.65955506 0.71077146 0.1104616
0.80639287 0.098572 0.17543236
-0.02735552 0.50684952 0.11764923
0.37610328 0.72057393 0.12320657
0.0638823 0.91893324 0.10711899
0.55853158 0.98484982 0.15069697
0.94540767 0.51895094 0.22726969
0.15717059 1.00193188 0.00311965
0.81194425 0.87033264 0.29638695
0.83482776 0.14968501 0.28580701
0.89282413 0.35451869 0.02358991
0.93488344 0.1615361 0.01310463
0.37016925 0.49294648 0.29446024
0.34448115 0.41044084 0.05677242
0.04420691 0.45019147 0.2853827
0.39099193 0.76762114 0.00868879
0.31573303 0.78611276 0.26561024
0.1630078 0.87276575 0.2573571
0.15995237 0.69427313 0.03210263
0.62792584 0.2212189 0.07344594
0.08459917 0.64119105 0.09078094
0.28552549 0.86912615 0.21496596
0.91567015 0.30589832 0.13559875
0.32396689 0.25218658 -0.0112961
0.43598127 0.90057879 0.2457668
0.08285095 0.76216664 0.14075752
