POSCAR file written by OVITO Basic 3.5.4
1
17.670372 0.0 0.0
0.0 17.670372 0.0
0.0 0.0 42.408
W Nb Hf Zr 
50 50 50 50 
Direct
0.90914462 0.93343635 0.20553632
0.13852611 0.62928377 0.15065753
-0.0214864 0.34278806 0.17688697
0.89024461 0.88736542 0.30261366
0.57783346 0.61064596 0.05600169
0.6747434 0.44932762 0.16324111
-0.05892394 0.46039784 0.11571777
0.24633792 0.86460231 0.26948416
1.09692091 0.08410134 0.32244108
0.2206276 0.60883572 0.26393839
0.3546283 0.55568364 0.23517556
0.69362581 0.64535303 -8.9329e-04
0.39024639 0.93451382 0.07914183
0.38368291 0.34700227 0.28253095
0.56671641 0.79455023 0.31006729
0.6597556 0.38795941 0.28119783
0.33038963 0.20980268 0.05380091
0.6627379 0.28989276 0.18317956
0.86925609 0.57674137 0.06491899
0.66742285 0.24790206 0.2459752
0.7352594 0.17058544 0.16544832
0.47977339 0.50172333 0.04872756
0.08606606 0.33796875 0.2576478
0.02663306 0.93806137 0.04121436
0.44206166 0.17738918 0.15627162
0.96191663 0.36786281 0.30204215
0.2322576 0.09113607 0.03012641
0.75344009 0.14792687 0.27869974
0.72121532 0.39175559 0.22517331
0.23570708 0.48495113 0.17887712
0.89891009 0.8835444 0.13392272
1.02040513 0.82683661 0.29213366
0.54236291 0.58387957 0.32163163
0.98436953 0.99458357 0.27524615
0.98408349 1.00157912 0.14907483
0.63978386 0.68443554 0.27323614
0.6038165 0.16596225 0.06338126
0.24524686 0.41471851 0.11627231
0.29492383 0.34003046 0.06617987
0.32828194 0.49681919 0.06229325
0.93474944 0.8034179 0.23990308
0.64423967 0.55015414 0.2085512
0.62791687 0.03259221 0.09983198
0.07997389 0.40980147 0.20672905
0.87742453 0.52634572 0.32816703
0.51918523 0.74772879 0.06258503
0.91328539 0.12226825 0.26493866
0.20357493 0.95430533 0.12438188
0.37510169 0.71221326 0.20292477
0.42641478 0.04983108 0.29153301
0.58848656 0.04634744 0.04329148
0.70315188 0.33299087 0.09873912
0.16061391 0.97513041 0.02475642
0.30556117 0.56038621 0.11504685
0.0656404 0.49840029 0.28292277
0.12041509 0.8296967 0.04276195
0.89794598 0.30772165 0.11131898
0.95107466 0.24973135 0.27454698
0.78868521 0.91316654 0.17913999
1.00792401 0.68663884 0.31434741
0.65732916 0.62203216 0.12553305
0.82674748 0.23096255 0.03751757
0.08399152 0.67259229 0.26552239
0.28049822 0.16765826 0.13890898
0.15561005 0.08012817 0.14607987
0.02156105 0.84470748 0.18539808
0.53978269 0.54763629 0.15514297
0.30559143 1.01674515 0.24078119
0.63145194 0.49209934 0.10251881
0.19613638 0.1208518 0.20307739
0.1877503 0.55900391 0.01857956
0.81446523 0.42522254 0.28833372
0.74438335 0.65006217 0.07017452
-0.01199255 0.1106166 0.02509774
0.54375819 0.94911132 0.27167294
0.32070631 0.44169411 0.00884984
0.0698366 0.38944951 0.09767162
0.44992402 1.03315455 0.23361733
0.23455573 0.27989761 0.22398256
0.60966714 0.2294606 0.29751641
0.03026076 0.08094479 0.19665574
0.46291531 0.35943705 0.03754727
0.21771472 0.63503151 0.19545344
0.82634982 0.65719431 0.32939379
0.99524476 0.60680134 0.13575781
0.31552529 0.72686367 0.25715393
0.84935923 0.65043806 0.11757087
0.15366659 0.44901317 0.03843622
0.80739729 0.08121812 0.05698832
0.00489659 0.23517074 0.06547898
-0.03296907 0.16206662 0.32168027
0.76573735 0.57522182 0.17095854
0.38308792 0.46963793 0.30202501
0.76543143 0.75928336 0.11625139
0.24771204 0.88692017 0.0783375
0.92732327 0.13184448 0.08533259
1.11808405 0.9377326 0.26166154
0.92578586 -0.02640171 0.08583647
0.25871394 0.39537885 0.33406787
0.65361624 0.78273558 0.08798728
0.74150322 0.595536 0.37453231
0.49496251 0.18236581 0.02566339
0.04497815 0.2184458 9.3308e-04
0.81998253 0.02993994 0.13189734
0.40640755 0.19352395 0.21459461
0.06468708 0.89134285 0.10907686
0.30342987 0.85262874 0.20566285
0.8329058 0.64344533 0.21996617
0.09055138 0.57463364 0.08099618
0.06417506 0.22690424 0.13486531
0.16045591 0.75911848 0.30860947
0.54700865 0.35876479 0.2418439
0.42946388 0.42379851 0.10988645
0.14080792 0.09816711 0.26014154
0.89225888 0.3804504 0.05303395
0.07676832 0.24128408 0.21745929
0.46363596 0.57253327 0.0996084
0.08370756 0.54995042 0.2256499
0.33895395 0.33762008 0.15637514
0.88769246 0.79153993 0.18156677
0.92168762 0.46708638 0.18593642
0.71169242 0.46691653 0.04900163
0.40738032 0.78892056 0.02871491
0.16849948 0.79129057 0.14977601
0.51556922 0.72821523 0.15887785
0.48739632 0.44594925 0.2001045
4.7256e-04 0.6723715 0.05179369
0.52196213 0.51391199 0.2716668
0.46041588 0.65303429 0.26725539
0.15616972 0.95125815 0.19364236
0.61742551 0.1983187 0.12907682
0.55242183 0.34461692 0.14690701
0.46871855 0.08384597 0.0813699
0.69707032 0.84417654 0.3252193
0.68802375 0.91987347 0.01139077
0.77865064 0.20969197 0.0983353
0.33508718 0.39817503 0.22430084
0.66478152 0.6968846 0.34051963
0.35783568 0.73526581 0.11775103
0.07768783 0.48665 0.15437328
0.57282993 0.7558995 -0.00451911
0.62368777 0.09173959 0.25946862
0.08147945 0.2557461 0.30862388
0.37036915 0.2323157 0.32863507
0.54022473 0.7783768 0.22028583
0.13251252 1.046811 0.08249803
-0.00182394 0.4955718 0.02350849
0.74093805 0.93250542 0.0811122
0.44503983 0.83995435 0.26210807
0.90521598 0.1867711 0.16048298
0.84729653 0.0442609 0.31875071
0.16089774 0.80059331 0.23223253
0.29705402 0.16205842 0.26305956
0.45866405 0.32960198 0.34807461
0.67957527 0.54250836 0.31338388
0.65275997 0.30420951 0.02545937
0.89666978 0.60942869 0.27545161
0.66191576 0.88636153 0.25443522
0.36441133 0.92939461 0.31021236
0.49614333 0.93984954 0.01261922
0.34017008 0.65764612 0.04741879
0.87263511 0.107717 0.19760177
0.57117945 0.36074084 0.0784448
0.91346182 0.96698076 5.0e-08
0.94313361 0.43450797 0.24674686
0.74235813 0.76825883 0.01715206
0.80243784 0.76254943 0.27011182
0.31548552 0.06288998 0.16964368
0.74758209 0.5588478 0.24823234
0.6573 0.89414914 0.13829876
0.3435515 0.28963268 0.00228905
0.71035994 0.75527342 0.19670987
0.69213558 0.05271483 0.18882661
0.03135705 0.7366656 0.12754199
0.52808893 0.0228203 0.14631702
0.19428188 0.22355673 0.07660821
0.85091524 0.28189136 0.22682411
0.19726227 0.70418137 0.06952552
0.22801398 0.39846525 0.27059058
0.17353113 0.30829578 0.16269467
0.53553186 0.88888874 0.07183233
0.47921751 0.87761102 0.17891387
0.33889149 -0.00396779 0.0270049
0.53657054 0.41514917 0.32338288
0.33195761 0.60579279 0.32436879
0.91668818 0.81882656 0.0571426
0.3962489 0.58938284 0.17114448
0.34408663 0.89243431 0.13150617
0.48719604 0.1778176 0.26890034
0.31353802 0.0636045 0.09266599
0.78561568 0.48380302 0.10737582
0.56738774 0.16345933 0.20106376
0.78757746 0.32656336 0.15950367
0.44959843 0.24704647 0.08686444
0.02200099 0.67514232 0.19993198
0.82506477 1.00296784 0.25362464
0.79190416 0.2404084 0.31000387
0.58012201 0.97202453 0.20776693
0.25338573 0.06260927 0.31188961
0.03652066 0.94856957 0.34252625
