POSCAR file written by OVITO Basic 3.5.4
1
17.563496 0.0 0.0
0.0 17.563496 0.0
0.0 0.0 42.15
W Nb Hf Zr 
50 50 50 50 
Direct
0.71874467 0.83619119 0.09502162
0.17614125 0.02654097 0.03209292
0.76135653 0.10739683 0.07367302
0.9819457 0.3957335 0.25232886
0.52167872 0.02499569 0.13740647
0.39626979 0.58861553 0.0064576
0.83034923 0.22440983 0.08835465
0.26384066 0.05111137 0.0979756
0.87653682 0.39187662 0.28590512
0.44880109 0.85018052 0.27322092
0.45485975 0.7578271 0.15069513
0.09247156 0.18544524 0.27894163
1.06947052 0.69624562 0.27533602
0.28615812 0.33936098 0.05003332
0.60692503 0.33470488 0.05760963
0.51560158 0.0109063 0.27287924
0.93959631 0.25804707 0.0343444
0.57667668 0.84164519 0.12298776
0.03236676 0.85670421 0.15558922
1.07878487 0.58687152 0.13097916
0.87547301 0.48361948 0.21247866
0.79100567 0.57100449 0.24769071
0.95139521 0.55001478 0.2663566
0.36389733 0.22891125 0.03250609
0.12982796 0.580968 0.24320386
0.96203043 0.96568834 0.19359484
0.05966102 0.87476919 0.21692326
0.19402606 0.11251437 0.14606578
0.1546347 0.77305784 0.23908481
0.85366643 0.24675216 0.28137951
0.29234793 0.99029251 0.16010682
0.88927926 0.78626803 0.18569119
0.76793746 0.76331364 0.15170732
0.47566766 0.26487161 0.18909965
0.71534891 0.65745857 0.28850136
0.60090007 0.51319288 0.07380204
0.68842495 0.4917728 0.20583596
0.12529351 0.07387052 0.0882779
0.52635086 0.22660925 0.29194478
0.26213636 0.38338822 0.15472789
0.34173027 0.63772785 0.05112161
0.352015 0.86127298 0.18110207
0.78851409 0.10228726 0.28947774
0.48481927 0.91057824 0.17000108
0.50146545 0.23402944 0.11684417
0.50813079 0.95205621 0.08057107
0.87602332 0.90757375 0.23577026
0.79411812 0.99263003 0.10971012
0.57347142 0.13841036 0.0864088
0.99555978 0.30876502 0.08379733
0.50116715 0.63445371 0.03957867
0.70515274 0.2646361 0.27327281
0.94508153 0.53038744 0.15948083
0.44994194 0.43599479 0.28112181
0.67273156 0.25059426 0.10296291
-0.0299457 0.82454953 0.08346098
0.85225963 0.14014827 0.13786413
0.66859223 0.95233946 0.1472406
0.17821547 0.75191973 0.3103264
0.63841822 0.51315405 0.14329185
0.53199963 0.3997902 0.10569344
-0.03537972 0.93330609 0.29576771
0.20155493 0.88097151 0.01817508
0.44155372 0.31186402 0.06929083
0.65393653 0.61331491 0.02952414
0.64120793 0.79542136 0.30594866
0.37136154 0.69824944 0.30900316
0.24408057 0.26635155 0.25659232
0.09890747 0.18467644 0.1867996
0.89334353 0.37416617 0.13133373
0.26695112 0.78127334 0.07982065
0.88033773 0.66654547 0.29148283
1.06594502 0.50357041 -0.00280901
0.05935221 0.15522501 0.0420353
0.84034441 0.73297383 0.08492164
0.25055378 0.4960513 0.22107462
0.64201051 1.03007215 0.204506
0.6897239 0.85090984 0.19300482
0.45559704 0.79719349 0.32631002
0.42674033 0.2083494 0.23844098
0.82171584 0.32572842 0.23461677
0.6019335 0.34487636 0.15324725
0.12478057 0.27600655 0.06667412
0.9653117 0.77671014 0.25449642
0.2633291 0.75721383 0.02487113
0.79000292 0.60978213 0.11290217
0.30552696 0.25637726 0.18876444
0.69864462 0.34779084 0.21329782
0.74577325 0.77100375 0.03655928
0.7422711 0.43472868 0.27340582
0.93193275 0.65765573 0.21790048
0.20023345 0.53457463 0.1613033
0.29913749 0.5290342 0.11299066
0.492975 0.62100212 0.19414983
0.80897479 0.33643546 0.06135356
0.41717727 0.35615908 0.14991078
0.93378365 0.716681 0.14247208
0.1114219 0.81108643 0.05408474
0.06703492 0.02817854 0.32312018
0.11025871 0.33780766 0.28779357
0.19457371 0.82630501 0.17646366
0.19889009 0.08133411 0.30759664
0.95691274 0.13067093 0.30429749
0.85778379 -0.07754217 0.06491905
0.38403166 -0.0629671 0.11605294
1.00723904 0.66412853 0.07463593
0.23241922 0.16462764 0.05896501
0.097711 0.6563799 -7.2639e-04
0.9630715 0.74999267 0.0156885
0.08059518 0.5365302 0.05955284
0.94668457 0.12197458 0.1873148
0.23228594 0.42819106 0.27846133
0.63308707 0.67947159 0.0888998
0.40651467 -0.02338892 0.22808805
0.5236916 0.10249239 0.19236729
0.81427783 0.82647782 0.29801002
0.42007213 0.09384627 0.08259692
0.61182723 0.71095122 0.1536057
0.35605882 0.17226151 0.29690294
0.46780118 0.60750148 0.12370604
0.79418632 0.46000219 0.15783539
0.56336772 0.39542723 0.31998776
0.43031906 0.76413457 0.01523738
0.04546937 0.95328277 0.04228977
0.80434315 0.62867512 0.18615368
0.522514 0.4643584 0.19669793
0.37966927 0.12514179 0.16014466
0.86937854 0.86087351 0.1328765
0.93082505 0.60334735 0.00699208
0.27539326 0.09579265 0.22186619
0.20502623 0.25070565 0.31653965
0.79984868 1.0430179 0.1953153
0.5474699 0.79523627 0.21274167
0.19883586 0.40301055 0.09795788
0.16306781 0.35750834 0.21466542
0.76785424 0.16882062 0.22851013
0.32428329 1.07923942 0.01440618
0.63921579 0.11654436 0.28367941
0.1791394 0.64933109 0.08204921
0.44608578 0.80621119 0.08371536
0.83069874 0.54870315 0.31550242
0.59631134 0.8482864 0.05004122
0.7460615 0.27345217 0.16266005
0.1675185 0.25952356 0.00300561
0.2779004 0.64215799 0.26318879
0.43573988 0.55780525 0.3131159
-0.01503022 0.30027647 0.32524732
0.76835869 0.73804404 0.23527589
0.96999976 0.33632809 0.18607107
0.5510506 0.35171567 0.24827024
0.9028238 0.09939196 0.05274225
-0.00865693 0.77247211 0.31819514
0.385233 0.48506277 0.05894806
0.37684614 0.32160742 0.29587453
0.60693671 0.21695085 0.21279163
0.69679433 0.11886512 0.1375029
0.51052382 0.16797691 0.02860434
0.52553382 0.71790783 0.26703259
0.79576905 0.60578635 0.04049142
0.24915015 0.93946697 0.22760118
0.24053584 0.45936026 0.02452508
0.09537323 0.75033888 0.11847066
0.70761153 0.24015864 0.03502703
0.07779657 0.67293139 0.18308988
0.7169669 0.4381634 0.02551967
0.3778536 0.47793403 0.16837838
0.49381624 0.08530712 0.32632398
0.29825494 0.81423473 0.27468251
0.60176004 0.51240823 0.2590534
0.36053012 -0.00355471 0.30046191
0.0868695 0.51557278 0.29613029
0.57593613 0.92266874 0.31937958
0.36164317 0.36502875 0.23241748
0.89378747 0.51660795 0.08475301
0.30941873 0.73110549 0.13407178
0.10779937 1.01089332 0.18267203
0.06956704 0.43292703 0.1331898
0.49854739 0.45829004 0.02683787
0.1537466 0.27319947 0.14124716
0.72653264 -0.06175029 0.26536703
0.32800856 0.24447131 0.1058766
0.14777815 0.91543647 0.28384897
0.85878372 0.96313728 0.33260966
0.9003085 0.41922728 0.02231893
0.88710415 0.04306328 0.25446311
0.67875645 -0.01159818 0.07364547
0.64889435 0.62429871 0.21079903
0.59985414 0.66667244 0.32839305
0.07614891 0.37910069 0.03636916
0.16881323 0.92093028 0.09481736
0.33510287 0.91786819 0.04678637
0.28088069 0.6497993 0.18710408
0.03487715 0.50454871 0.20766854
0.71449985 0.41074156 0.09629089
0.97391777 0.97436231 0.10330717
0.41396724 0.57105682 0.23930416
0.00145693 0.17956086 0.13096731
0.36861139 0.73726587 0.21855706
0.06097507 0.0278348 0.25045244
0.98498222 0.2257375 0.24335924
