POSCAR file written by OVITO Basic 3.5.4
1
17.520744 0.0 0.0
0.0 17.520744 0.0
0.0 0.0 42.048
W Nb Hf Zr 
50 50 50 50 
Direct
0.62563844 -0.06583516 0.02199058
0.27043085 1.0216357 0.16518756
0.75265327 -0.09405037 0.06583957
0.05975338 0.37898213 0.23815455
0.50450926 0.18079223 0.14035779
0.18127158 0.24958357 0.13151524
0.76466348 0.24146469 0.07000036
0.33058142 0.97723583 0.22689863
0.88328271 0.8037571 0.24875647
0.41741799 0.80273556 0.31851958
0.63752852 0.60361366 0.16662739
0.49603345 0.07715799 0.2602586
1.0167032 0.48876753 0.06654957
0.50367542 0.46295903 0.10390151
0.5227828 0.51165516 0.05267216
0.54161305 0.83644484 -0.01590434
0.94522721 0.0927281 0.10811625
0.66330256 0.1546738 0.14675262
0.835892 0.93854895 0.18469747
1.04572327 0.32866316 0.0452423
0.99186443 0.81908295 0.11538628
0.69292068 0.74666228 0.19057567
0.87823484 0.52020612 0.31192847
0.25610218 0.353954 0.16911234
0.0302409 0.88015475 0.03651432
0.88711855 0.96650149 0.13236667
0.10447843 0.10493268 0.13531767
0.40388219 0.1350733 0.101343
-0.00651642 0.74980676 0.22135996
1.0566049 0.2079677 0.27633492
0.00543271 0.66480054 0.2805434
-0.03689035 0.84270344 0.17583969
0.70044755 1.03584133 0.19000285
0.66115798 0.00564415 0.24959852
0.85083433 0.7491889 0.19075879
0.64988443 0.5790685 0.07968703
0.8942778 0.38630285 0.09279635
0.2638166 0.83251141 0.08805964
0.77626117 0.12081395 0.04060761
0.27227697 0.57963022 0.26496791
0.23456634 0.68527959 0.11618866
0.28606649 0.10402525 0.22083914
0.02915865 0.07551579 0.31606472
0.12140156 0.80274136 0.27242391
0.67114177 0.03247209 0.07040031
0.60019589 -0.2383592 0.03262236
0.96118547 1.02647335 0.18269069
0.9245322 0.99455273 0.2932552
0.26831881 0.10312356 0.09901903
0.68477592 0.58426199 0.29341999
0.67211113 0.47706553 0.01427469
0.95380373 0.43771847 0.19960586
1.10542842 0.44072542 0.01384677
0.46971258 0.35758121 0.23966473
0.88435407 0.03055494 0.05718695
-0.10760593 0.82566928 0.04341858
0.74630699 0.9772314 0.12600662
0.22505296 0.67390245 0.18233232
0.16635737 0.46825165 0.08262565
0.67800292 0.49162338 0.20385668
0.50887484 0.58892298 0.12240293
0.13665151 1.06675105 0.25005365
0.12292732 0.24989497 0.00391879
0.57373183 0.30090789 0.1105603
0.95701715 0.568318 0.02242012
0.34312734 0.9808459 0.10847625
0.3522138 0.21548489 0.05018915
0.33732162 0.30870759 0.28500223
0.14727954 0.66058266 0.24770125
0.09322587 0.15485192 0.07661433
0.44139535 0.69121283 0.34120462
0.70766226 0.77890339 0.30077667
0.71127624 0.34477687 0.02823867
0.13502726 0.76975909 0.07507874
0.65822583 0.63575428 0.00439252
0.64763947 0.44118742 0.14504277
0.74309782 0.1795 0.22569688
0.46994979 0.89894161 0.13368954
0.35812444 0.66414006 0.2223901
0.57699975 0.12051096 0.19704074
0.79474052 0.13022557 0.09772223
0.47203422 0.29408802 0.07318532
0.21809557 0.11646555 0.03909119
1.07662822 0.95283561 0.29193402
0.0015113 0.61859214 0.33768898
0.42278183 0.86887302 0.18382722
0.10967843 0.02128336 0.19237405
0.81554449 0.37159272 0.2091838
0.72771408 0.70716865 0.06702951
0.88993012 0.56273328 0.2126271
0.63506427 0.64692388 0.22714877
0.01384597 0.22238052 0.14132972
0.0632305 0.358505 0.1037797
0.53786935 0.71639232 0.18100835
0.40076132 0.42819015 0.28440302
0.29211306 0.1777961 0.16805297
0.77720517 0.6157608 0.01989423
0.94527343 0.70695309 0.14002703
0.53971286 0.54664027 0.31513997
0.79671982 0.51826214 0.26417929
0.20319184 0.53244457 0.15075927
0.19716985 0.22581312 0.26735439
0.21331382 0.38811557 0.23963215
-0.01711691 0.24731291 0.32382708
0.41165738 1.0540046 0.17312382
0.21567929 0.88022454 0.03518078
0.32548518 0.29580888 0.11880177
0.29734806 0.25593441 0.21825777
0.24745488 0.83548463 0.15673127
0.84179325 0.68195244 0.31060746
0.39963425 0.97902301 0.28886688
0.83309511 0.46347929 0.15423756
0.60353861 0.88891948 0.08311987
0.57585102 0.29597007 0.18340182
0.72821151 0.29310022 0.13736676
-0.02095224 0.12868584 0.22910506
0.18096275 0.96772437 0.08988839
0.48524076 0.49355074 0.1727511
0.50513939 0.02127255 0.05800468
0.5073146 0.66002352 0.06866718
0.56268352 0.3637223 0.04213634
0.36000271 0.47706769 0.21096381
0.51430926 -0.02227667 -0.01847454
0.91499043 0.96146497 -8.4771e-04
0.7937429 0.66076002 0.14775677
0.70974182 0.41957589 0.08665311
0.41549188 0.33355911 0.17414933
0.78831196 0.82753899 0.11985442
0.6890962 0.6441544 0.34388044
0.13749709 0.50448015 0.21563267
0.30059763 0.11675574 0.27986237
0.63802918 0.88266006 0.15922732
0.56100471 0.90775936 0.29325671
0.18651225 0.55987975 0.03983964
0.88574754 0.67169852 0.0807662
0.72501298 0.33778196 0.25115965
0.44748911 -0.13683989 0.05807287
0.62157549 0.09757529 0.01556951
0.34021147 0.54620786 0.08345356
0.48818813 0.58340773 0.25038341
0.79291809 0.67814853 0.25301095
0.55555758 0.71287369 0.29665352
0.93290295 0.22313212 0.07529789
0.23551396 0.93766925 0.27599194
0.47981623 0.59519481 0.0072272
0.26370968 0.71572366 0.30909231
-0.07813868 0.39023264 0.28474518
0.61007279 0.48521292 0.25720406
0.1368557 0.18682127 0.19737423
0.79270183 0.2757762 0.31068669
0.92519792 0.26847422 0.21940966
0.9762478 0.83927458 0.29947643
0.14617612 0.56090995 0.31090174
0.25389424 0.4185197 0.31148595
0.84241705 0.04076129 0.23887876
0.75822203 0.83170252 0.00869114
0.3552778 0.46071052 0.13756336
0.61842728 0.79945243 0.25021145
0.35076087 0.04787685 0.03590344
0.13045454 -0.13714026 0.21315913
0.20713616 0.32175652 0.05392548
0.0307525 0.59385537 0.1882478
0.62039644 0.18778437 0.26134683
0.99346703 0.92936394 0.23084439
0.70901367 0.41529645 0.30571352
0.35692987 0.63644425 0.14521171
0.42211409 0.77428001 0.00487445
0.04012491 -0.02933209 0.08449274
0.4548325 0.21163745 0.21335952
0.76127126 0.90217662 0.24562336
0.09533789 0.39236186 0.16636663
0.4741428 0.16727015 0.30231951
0.74536043 -0.02000586 0.30644508
0.8346912 0.53890314 0.07332298
0.6008644 0.73485183 0.12227554
0.84332052 0.11563712 0.16569038
-0.03427329 0.51260714 0.13108035
0.40502752 0.77438518 0.11836245
0.08922903 0.91793216 0.14812585
0.53804101 1.0212853 0.12131417
1.00320692 0.5138182 0.26329536
0.08686634 0.99988843 0.01917265
0.82012387 0.84926945 0.31671775
0.86304069 0.16650451 0.27898677
0.89807748 0.41080089 0.03352517
0.99195382 0.14417107 0.02848827
0.3214078 0.54829714 0.31939382
0.38151442 0.39105507 0.05191766
0.10233379 0.37759933 0.29759582
0.29324295 0.72270928 0.04707653
0.4337173 0.79212169 0.24939714
0.10065606 0.72389576 0.32953674
-0.03712904 0.70203378 -9.2545e-04
0.62481581 0.18356474 0.06938431
0.07588982 0.62098678 0.08769911
0.28068856 0.79841909 0.24694202
0.87981314 0.27243172 0.14328619
0.27043328 0.25239235 -0.0020686
0.50827241 0.95306553 0.22771456
0.09704476 0.74465666 0.14930598
