POSCAR file written by OVITO Basic 3.5.4
1
17.510057 0.0 0.0
0.0 17.510057 0.0
0.0 0.0 42.024
W Nb Hf Zr 
50 50 50 50 
Direct
0.83122685 -0.05598218 0.27018042
0.29249721 1.03115973 0.23827735
0.75995752 0.14107162 0.26653992
0.06721713 0.27895544 0.27198128
0.58107275 0.21321362 0.12361618
0.20706638 0.34737652 0.13749063
0.57574637 0.54163628 0.03455567
0.47230265 0.00512423 0.25296096
0.77530074 0.72518668 0.23683834
0.58102316 0.86761895 0.08819113
0.59696632 0.52076259 0.15155974
0.43834859 0.29180304 0.22494067
1.02030773 0.42019547 0.03636245
0.28319205 0.40421341 0.02571041
0.64288314 0.64815033 0.0688139
0.63057729 0.84414322 0.03181989
0.71744965 -0.00274647 0.03226354
0.62770373 0.06660605 0.17512867
0.77113359 0.87778447 0.15717944
0.87913297 0.36027338 0.06068337
0.78645744 0.63830874 0.07830216
0.67940026 0.75112413 0.19765525
0.5694313 0.55002174 0.27949108
0.18800079 0.18837971 0.16637017
0.37480696 0.94451249 0.03543346
0.00237672 0.87369763 0.05196084
0.06429601 0.09106975 0.13100213
0.1648356 0.00793996 0.12934079
0.87315592 0.60812636 0.25169486
0.90808277 0.12098219 0.26013768
-0.04198075 0.5430617 0.29228402
0.18192956 0.83245694 0.27523705
0.74701788 0.0228571 0.13885682
0.71940267 -0.0238111 0.19777917
0.91394767 0.57514159 0.19063897
0.75380577 0.75004974 0.04066353
0.89913356 0.12717657 0.12771874
0.20435842 0.68727023 0.15899898
0.57956565 0.40378079 0.04201401
0.10711241 0.7336311 0.24556741
0.18715094 0.67088882 0.09924792
0.38765486 0.0124495 0.19097226
-0.02829609 0.04033076 0.30683572
0.0513066 0.87134919 0.30723901
0.76966861 0.0934721 0.0856552
0.70778537 0.23942979 0.08823129
0.03504621 0.86154343 0.23032825
-0.08799599 0.83499687 0.27186562
0.43664283 0.44310199 0.03426482
0.45098601 0.56043176 0.00606823
0.38551199 0.84527722 0.3429626
0.69775754 0.42844232 0.19342196
-0.04768469 0.4168785 0.10175063
0.36842805 0.45835096 0.23753569
0.76713391 0.87833337 0.00137646
1.09302078 0.78982058 0.01955502
0.70609894 0.93008825 0.09021705
0.07029742 0.6079231 0.18007069
0.16946899 0.52251856 0.02335141
0.86744818 0.44085886 0.21156377
0.33518498 0.69536801 0.10181394
0.24553167 0.8893568 0.3378121
0.04100746 0.28358084 0.06119191
0.38769353 0.57409093 0.12748368
0.93692966 0.69091407 0.04688614
0.26036106 0.09001296 0.07147628
0.24088785 0.28766418 0.06065325
0.13386571 0.06082034 0.19059794
0.07405398 0.5867917 0.24945683
0.12702818 -0.00985184 0.06319271
0.23403164 0.55130798 0.24455907
0.63934093 0.69717232 0.26813163
0.86294199 0.41692636 0.27502038
0.05826393 0.90077764 0.11531052
0.8910747 0.8098738 0.01617173
0.64510835 0.37794481 0.11089096
0.68312156 0.16817548 0.21969764
0.5049311 0.66290056 0.12207888
0.45863642 0.55918494 0.18975622
0.53090939 0.13351375 0.23813142
0.85514361 0.22885921 0.09170561
0.33100892 0.42439646 0.08563293
0.15780067 0.18652064 0.10171204
0.02748906 1.00848374 0.01391317
0.15207668 0.37883761 0.01518026
0.53197476 0.7385212 0.17398371
0.16130439 0.95539632 0.24189761
0.83795412 0.15891545 0.19028356
0.85826581 0.95887363 0.04971557
0.82174011 0.49788046 0.15351008
0.68463572 0.62608026 0.14648467
1.03464604 0.9627108 0.17077558
0.14017157 0.39390582 0.08794879
0.60411693 0.60688396 0.21338774
0.44445588 0.47395974 0.30501725
0.04598403 0.14880166 0.26991519
0.17271994 0.81690745 0.08662851
0.95082124 0.82409815 0.15415087
0.3305493 0.58657604 0.29731865
0.70268616 0.44830791 0.24963346
0.11124965 0.30879792 0.19677467
0.40855261 0.10211775 0.02007467
0.33601488 0.30412593 0.26790816
-0.10243043 0.25580327 0.02264383
0.44994313 0.14597813 0.15719224
0.32212506 0.79701224 0.04649226
0.57421942 0.21053592 0.0465844
0.27608492 0.32117039 0.20170648
0.31518587 1.08840912 0.13625517
0.92364626 0.27553702 0.25261291
0.65641837 1.02151767 0.25589423
0.71685205 0.50232524 0.08095737
0.49946926 0.86576189 0.29990275
0.47016938 0.31067654 0.09470876
0.73223263 0.19219382 0.14922119
0.18719546 0.04387553 0.29846609
0.31618235 -0.05520118 0.09345113
0.44063361 0.61110247 0.25610317
0.42480028 0.13734992 0.08863807
0.69292133 0.7618672 0.11843877
0.62006784 0.42004045 0.30568504
0.36533629 0.44013104 0.15759798
0.51662855 0.99477598 0.05496517
0.96135403 0.11435497 0.0584243
0.49639894 0.4816531 0.11060413
0.31918568 0.57173641 0.06125107
0.35857672 0.15846287 0.22481874
0.84141123 0.80348363 0.09532601
0.83406332 0.70387629 0.30153488
0.1755972 0.43901716 0.19106314
0.42465386 0.11006514 0.29668605
0.60813431 0.90868308 0.14588742
0.47524468 0.83766409 0.01642301
0.17770124 0.51880308 0.12682148
0.89725785 0.53397778 0.04949678
0.97505516 -0.01672057 0.24782166
0.16513691 0.16083487 0.03331476
0.33898608 0.00432435 0.35002038
0.45752278 0.68485146 0.04883984
0.34453717 0.75625404 0.2967643
0.75665887 0.56908008 0.30148808
0.48712833 0.68322463 0.31359013
0.01617545 0.26307529 0.12003903
0.34131747 0.91959795 0.28991885
0.59246587 0.72452819 0.00346088
0.01783418 0.71621431 0.29782548
0.77301056 0.29276543 0.21955564
0.51923297 0.41671501 0.24107502
0.02170974 -0.01390054 0.35828338
0.94636316 0.19702109 0.32002874
0.88394786 0.01016341 0.17857834
0.89152221 0.89909373 0.33164684
0.01988757 0.44009319 0.24333346
0.18458387 0.37999972 0.26504834
0.83428319 0.86624875 0.21124236
0.8819365 1.05114556 4.1749e-04
0.40974439 0.26842526 0.03391665
0.76879256 0.59014428 0.20951563
0.65155037 0.65387108 0.33414263
0.35051412 0.88089264 0.21867547
0.33395245 0.25303337 0.13057982
0.94396792 0.59585894 0.13001554
0.58107292 0.24873151 0.18310221
0.95376073 0.71202757 0.21491114
0.59588908 0.26891145 0.25556375
0.3031969 0.58008125 0.18481536
0.45372457 0.81769716 0.11843338
0.24056608 1.00082439 0.02490537
0.49321032 0.35711989 0.16534846
0.47541304 0.78901466 0.24164802
0.89830486 0.30734767 0.17101324
0.48209304 0.28518557 0.30013716
0.58990591 0.11727999 0.29794669
0.95784738 0.38188022 0.3143456
0.82205355 0.7034087 0.15442392
0.89613477 -0.01730969 0.11195323
0.77912916 0.36286261 0.12083642
0.37931565 0.73420228 0.16911323
0.18220309 0.88646676 0.19133495
0.61747115 0.06650116 0.09790127
1.02172642 0.45916849 0.16432674
0.1896337 0.69225768 0.30623104
0.68060043 0.85823174 0.25156697
0.7671412 0.29345746 0.29627315
0.79802737 0.06014808 0.31263269
0.75326393 0.15150022 0.02687827
0.11034951 0.54539493 0.31479438
0.71058636 0.60776772 0.01229826
0.18464874 0.17140159 0.23754295
0.26584315 0.83326667 0.13888052
0.45840069 0.98468813 0.13159402
0.04875984 0.60981007 0.00377505
0.0622916 0.55871448 0.07841996
0.74306686 0.35802504 0.03544259
0.05219922 0.72890538 0.0992572
0.24851189 0.73124044 0.22970932
0.00474323 0.15764801 0.19497584
0.19544054 0.68318063 0.02937271
0.55219678 0.93598801 0.2040954
1.09027958 0.77807694 0.17340406
