POSCAR file written by OVITO Basic 3.5.4
1
17.520744 0.0 0.0
0.0 17.520744 0.0
0.0 0.0 42.048
W Nb Hf Zr 
50 50 50 50 
Direct
0.62415306 -0.0362937 0.04309126
0.25546921 0.99735701 0.13665866
0.7385734 0.03561803 0.03604943
0.11648846 0.4464073 0.26605184
0.54201181 0.16864788 0.13767387
0.12335883 0.39943677 0.12827849
0.81496145 0.31983461 0.08992309
0.37011703 0.9343724 0.22908165
0.85594991 0.7556561 0.26880142
0.36098493 0.80102977 0.31335501
0.62948186 0.56029659 0.12958914
0.46876505 0.05495844 0.24309305
0.98743816 0.54569635 0.06204051
0.44472999 0.37782631 0.08606966
0.5659389 0.56032227 0.04244944
0.56255082 0.79903797 0.01877065
0.94135078 0.07165134 0.10443735
0.6754416 0.08912261 0.14352034
0.81497822 0.91371601 0.1896836
0.97820816 0.37670375 0.07612526
1.05516286 0.79242443 0.12900038
0.68024048 0.66128156 0.18224653
0.68887683 0.32788795 0.29624164
0.23818786 0.34742048 0.15880789
0.03178224 0.83493926 0.02189085
0.94189062 0.94130563 0.1253136
0.13117863 0.25850153 0.13525766
0.35509474 0.11635094 0.10267313
-0.02725435 0.73608918 0.22024763
0.95892957 0.20630897 0.28650656
-0.01023935 0.69805406 0.28989906
0.05181602 0.94168306 0.21691974
0.68505627 1.01956161 0.19633803
0.65193294 0.03249548 0.25895779
0.77480382 0.77422189 0.21426845
0.69275131 0.61021005 0.07198102
0.86328626 0.40418092 0.13334863
0.22095828 0.83875965 0.13479763
0.71397614 0.1897077 0.0344024
0.2768469 0.60942751 0.22697182
0.29430159 0.5862925 0.10168192
0.341303 0.07961404 0.20701597
0.0014822 0.12146707 0.32740267
0.05455249 0.85149332 0.26772946
0.64728015 0.06068507 0.08592079
0.52820851 -0.13492928 0.06458052
0.96788978 1.00604135 0.17976578
0.89539838 1.02877094 0.29317012
0.29215298 0.1795964 0.05147584
0.7278931 0.47536918 0.28443551
0.69317108 0.49690185 0.01576214
0.91327168 0.51148293 0.18246417
0.97340804 0.39497819 0.01659026
0.49460971 0.33930461 0.23885707
0.86115916 -0.01447275 0.07104968
-0.04494953 0.81513589 0.07817905
0.76996382 0.99032476 0.13672263
0.23438501 0.69457224 0.151292
0.09073665 0.52617875 0.015514
0.74470795 0.53470824 0.20646478
0.47695005 0.53751984 0.09816486
0.17450538 1.026325 0.26075381
0.06249792 0.25179596 0.02617816
0.53016438 0.31926579 0.12986112
0.86392931 0.60738237 0.03439218
0.37503381 0.93066159 0.09558077
0.35540953 0.31769068 0.03986989
0.23481019 0.15432374 0.23202112
0.15341474 0.70200735 0.27318834
0.18047045 0.12729716 0.10388342
0.42391749 0.67866243 0.30902655
0.72167787 0.77394929 0.30073049
0.72231605 0.34365971 0.03087199
0.14393923 0.78237882 0.07866882
0.65028567 0.67473012 0.02451616
0.59859673 0.47589017 0.19425141
0.73284753 0.19350327 0.21481707
0.49828998 0.85657398 0.12808483
0.37285493 0.67889296 0.18528018
0.57516036 0.10674171 0.19547896
0.82027905 0.16329162 0.07980583
0.43840308 0.23225978 0.09097949
0.13755519 0.13568124 0.04034288
1.09583263 0.96856788 0.29860582
-0.00289978 0.48574889 0.29624068
0.51146376 0.74902306 0.19273374
0.16890429 0.06649978 0.18596408
0.79854528 0.39250255 0.18737821
0.77605889 0.74255645 0.05960384
0.84709219 0.67810692 0.18550284
0.58765144 0.59191715 0.22772928
0.03814613 0.14618262 0.16138094
0.15671752 0.50856 0.08059659
0.51252434 0.61389004 0.16707233
0.58110076 0.46499506 0.26481638
0.25619007 0.16767035 0.15409531
0.90393542 0.7619563 0.02271888
0.95758637 0.84006764 0.17337259
0.44226844 0.51212743 0.30803096
0.84519351 0.47998123 0.25339822
0.20069434 0.53668304 0.15437365
0.13896949 0.16044363 0.29749045
0.24432674 0.26946986 0.27829364
0.0403967 0.32693706 0.30448943
0.42659725 1.03525236 0.15955842
0.21110086 0.84381952 0.02238998
0.28798212 0.26887239 0.10318749
0.31250226 0.30930184 0.21423769
0.37536128 0.84403678 0.1641384
0.8780963 0.58293338 0.30905206
0.4066977 0.93922356 0.29501171
0.68614662 0.4056268 0.14368179
0.72102052 0.89763977 0.08334619
0.5840188 0.26866761 0.18883016
0.78720654 0.24929538 0.14353753
0.00715295 0.07996311 0.24495543
0.20956092 0.94581517 0.07602574
0.43586774 0.49567451 0.22638753
0.50421472 0.0761988 0.07984144
0.55172936 0.69349254 0.08729575
0.54029132 0.31538282 0.0299984
0.46032496 0.42219868 0.16407087
0.49153753 -0.00789678 0.01121763
0.91857133 0.93047077 0.00577493
0.78020373 0.56031204 0.13982798
0.62887854 0.42594765 0.07592042
0.40448759 0.207398 0.16871749
0.82177135 0.79448979 0.12793543
0.71969728 0.60015616 0.3262116
0.22881472 0.45937551 0.22574135
0.31681172 0.09468555 0.28804608
0.66283609 0.85629606 0.17628236
0.5258046 0.8201091 0.30121293
0.22175586 0.6286387 0.038419
0.93747167 0.67379232 0.102102
0.81483854 0.29387397 0.260991
0.32633603 0.03472465 0.04283481
0.57189445 0.1091133 0.01502195
0.42411393 0.61679534 0.04991269
0.45510167 0.62389874 0.25218588
0.7520536 0.64979757 0.25600214
0.58481573 0.63970069 0.29753652
0.98034464 0.23117102 0.10341243
0.23596609 0.8885003 0.28174067
0.51566276 0.64488875 -0.00662104
0.28741604 0.69035402 0.290715
-0.03236628 0.40801143 0.23893737
0.67429576 0.35727834 0.23236323
0.13176015 0.28538152 0.21109109
0.85554716 0.39945079 0.31014334
0.89909123 0.20768691 0.21424857
0.84991339 0.87672656 0.31341957
0.13811957 0.58239061 0.22086508
0.37265108 0.38094798 0.28770978
0.80950271 0.05211906 0.24200359
0.71157033 0.85022936 0.00387085
0.2879712 0.41909142 0.08257571
0.6172537 0.74773441 0.24398157
0.42365424 0.15552878 0.01909335
0.22807167 -0.0700165 0.2056548
0.14609885 0.29851606 0.06178439
0.02802617 0.62896647 0.16977457
0.61063059 0.19174129 0.26451513
0.90978868 0.89473542 0.24269098
0.54907233 0.34758785 0.30129874
0.36670749 0.53184368 0.14973984
0.39232807 0.8025915 0.0206523
0.0344782 -0.02841686 0.05926946
0.40847933 0.20121092 0.24421997
0.72971875 0.89248345 0.25324981
0.08392691 0.45338953 0.1891701
0.46772317 0.16336454 0.31139984
0.54952169 0.04185322 0.30835358
0.81569815 0.4653228 0.06902982
0.66333796 0.73276276 0.12929931
0.85491239 0.09550582 0.16536259
-0.01368593 0.49817797 0.12684134
0.40750158 0.69398659 0.11947189
0.1091202 0.95226876 0.14061596
0.57258101 0.98623475 0.1343855
0.92864528 0.59568451 0.23554536
0.1087537 0.99114006 0.00314175
0.7435945 0.99900222 0.31019112
0.81962447 0.15726094 0.30349484
0.88031067 0.27783726 0.04129477
0.96104649 0.1181007 0.03236197
0.3182717 0.54587157 0.28431711
0.44995079 0.46096653 0.02491617
0.15870016 0.54119337 0.30678168
0.29524814 0.75985835 0.07590633
0.40514122 0.77244846 0.24490063
0.03722756 0.80185141 0.32641632
0.05785171 0.68773521 0.03995891
0.65526072 0.24042588 0.0879307
0.10041702 0.64049336 0.10837938
0.26819054 0.7619821 0.22361904
0.98602756 0.3112617 0.17753368
0.22215508 0.46153372 0.02522784
0.52602598 0.91767583 0.2129046
0.13863289 0.76319012 0.1952365
