POSCAR file written by OVITO Basic 3.5.4
1
17.520744 0.0 0.0
0.0 17.520744 0.0
0.0 0.0 42.048
W Nb Hf Zr 
50 50 50 50 
Direct
0.58826915 -0.01419109 0.03260856
0.26493312 1.01723489 0.16977233
0.78091166 0.0825037 0.02285114
0.13388957 0.40627928 0.26560224
0.5329646 0.12160562 0.12091452
0.09995085 0.34789917 0.10471923
0.83645986 0.33649817 0.08128187
0.43211811 0.99656525 0.22137345
0.83177653 0.73668786 0.28035836
0.41801638 0.80505866 0.30289569
0.61142182 0.52896183 0.12043961
0.50032534 0.08492569 0.24987366
1.01945972 0.56550081 0.04627909
0.43041941 0.35999544 0.07018079
0.58298028 0.59657107 0.05834105
0.59112052 0.85022827 0.0173649
0.92775794 0.06425965 0.09842648
0.69351046 0.10557503 0.13596669
0.8144812 0.94482588 0.19868686
0.98665427 0.37987705 0.06489958
0.9919054 0.80329787 0.13173075
0.71726001 0.63983788 0.18403635
0.70291079 0.31217678 0.28444402
0.21794395 0.3726197 0.16085295
0.04620436 0.86115792 0.02787523
0.92108023 0.94429969 0.14904939
0.10186756 0.26513816 0.16531934
0.27618959 0.10783248 0.11988766
-0.03743794 0.72597469 0.24105159
0.87822074 0.179411 0.28278517
-0.00670678 0.66421603 0.29251502
0.08589845 0.9449504 0.22943432
0.70324585 1.03388228 0.18528317
0.66166584 0.07728278 0.24838396
0.80911794 0.77188543 0.22754592
0.75110451 0.61696613 0.06736677
0.88178271 0.43796709 0.13671486
0.20132449 0.84366099 0.14309165
0.74538508 0.21796049 0.04248103
0.24239562 0.61485059 0.21589389
0.26016754 0.63618537 0.08568139
0.34278891 0.11010537 0.19948292
-0.05408503 0.10055331 0.33344464
0.13535994 0.87852496 0.27520842
0.69899506 0.0440229 0.07150928
0.51147665 -0.09540428 0.08334969
0.95666832 1.02927309 0.19376015
0.86650483 1.00816607 0.30084419
0.27538534 0.18799296 0.06280805
0.74555052 0.49387518 0.29465702
0.69230627 0.58196078 0.01928759
0.93132758 0.51389733 0.18204744
0.93477482 0.46552197 0.00735954
0.5152238 0.38487738 0.22791618
0.83219138 -0.03202914 0.07026538
-0.03216315 0.91182363 0.08733372
0.77976874 0.9614526 0.13512509
0.2307146 0.68435518 0.15100664
0.06753969 0.47119468 -0.0113866
0.76350266 0.5049068 0.18876336
0.45977657 0.51494262 0.09680043
0.17565304 1.01188246 0.30636602
0.04778551 0.31577527 0.01460765
0.56604005 0.34494566 0.10461327
0.88487957 0.64081971 0.03069451
0.38762424 0.91004366 0.09705483
0.29642029 0.32500665 0.05038235
0.21670498 0.12222414 0.25128045
0.09914325 0.71909699 0.25758686
0.13773345 0.12932761 0.12216315
0.42460745 0.66953009 0.32505237
0.71075278 0.74959958 0.3048683
0.77211764 0.35418866 0.02098637
0.12896936 0.86842457 0.0819133
0.70740377 0.73203313 0.03405137
0.54722987 0.43537832 0.16604577
0.6957896 0.18488201 0.20165164
0.52587198 0.83115154 0.15090402
0.37807563 0.6652532 0.19968467
0.55465782 0.11219955 0.18708501
0.81618051 0.14578 0.08908195
0.42710206 0.21023034 0.07883584
0.17526436 0.09999992 0.02722421
1.02651725 0.9848921 0.31342889
-0.02183044 0.46307481 0.28775262
0.55968123 0.72539697 0.18697092
0.11625843 0.09172562 0.19306843
0.82407143 0.36087969 0.19186364
0.83898377 0.76938419 0.07527087
0.86611491 0.67995564 0.17072602
0.57542987 0.55058707 0.22874795
-0.00522917 0.11827673 0.14958373
0.13868429 0.40929064 0.04463942
0.50329165 0.58737441 0.16548743
0.582183 0.39446777 0.28850171
0.2181698 0.18214556 0.17089908
0.84089992 0.86132773 0.03059664
0.95721421 0.86062657 0.19795125
0.45711701 0.5140438 0.2875515
0.84902562 0.44072939 0.25059176
0.16970045 0.53696063 0.11953976
0.10857749 0.14580768 0.311039
0.20995759 0.30753578 0.29689109
0.01590281 0.26843207 0.28735586
0.43494369 1.01701271 0.15019262
0.19358487 0.75037511 0.03697876
0.2641486 0.26471202 0.11475105
0.31050898 0.27740162 0.20175791
0.36550821 0.81729101 0.16473431
0.88134833 0.55684829 0.31240106
0.4372468 0.9671184 0.30699613
0.71200838 0.39650295 0.13058081
0.70054151 0.86646766 0.08433274
0.62448482 0.26760783 0.16614921
0.83500964 0.2467547 0.13631237
6.7368e-04 0.0867307 0.25987636
0.23324795 0.97722221 0.10496506
0.39023851 0.51999689 0.22626961
0.45322296 0.05425296 0.07316819
0.56324652 0.75806422 0.07757734
0.57467007 0.30105783 0.03564592
0.3955988 0.37410381 0.14571723
0.42992754 -0.07730477 0.02388692
0.94399516 0.97785133 0.00466966
0.77011055 0.55505083 0.13123707
0.64992444 0.45146032 0.06355171
0.3941174 0.16126811 0.141281
0.82145462 0.7832478 0.137894
0.7055049 0.58892536 0.33325453
0.2318835 0.43674531 0.21654998
0.35278421 0.07164938 0.26859513
0.70735324 0.83869849 0.18427698
0.56975826 0.79678585 0.31405227
0.15799432 0.6057112 0.03555993
0.9210191 0.64090958 0.10333222
0.81353197 0.25651883 0.24554556
0.30146962 0.04692669 0.05171372
0.59002449 0.12531428 0.03982073
0.36685387 0.61253169 0.0400026
0.4590031 0.67884261 0.25990127
0.72403022 0.60675268 0.2509914
0.58484397 0.60640464 0.29756405
0.98618981 0.23593395 0.09215087
0.28990375 0.86357348 0.28365529
0.55014234 0.6716991 0.00433188
0.28429473 0.68193967 0.28800082
-0.008657 0.37122605 0.23436305
0.67696414 0.37969515 0.22319846
0.11746621 0.2523419 0.22484311
0.85374787 0.37018275 0.31328312
0.94693055 0.18502232 0.21081023
0.88234639 0.84227324 0.32450137
0.10375159 0.54577801 0.24274362
0.41945062 0.35081328 0.27221721
0.81380562 0.07514635 0.24364702
0.72307589 0.91015946 -2.166e-04
0.29312255 0.45298283 0.08501455
0.63704333 0.73680415 0.24157382
0.40638195 0.17351609 0.01943226
0.2270055 -0.02435115 0.24087694
0.14289604 0.25071304 0.06270802
0.10944818 0.61110049 0.18553191
0.59001905 0.2449113 0.25353984
0.90182461 0.90521135 0.2573841
0.61376529 0.27355387 0.3358748
0.33702465 0.56519152 0.15279376
0.43087664 0.77956656 0.05300615
0.06850848 0.01477829 0.06116853
0.45038432 0.21004327 0.21772445
0.71808301 0.90301135 0.25242129
0.09844861 0.44413286 0.17317751
0.47535549 0.17830239 0.30582132
0.57244889 0.04128021 0.29869479
0.82893626 0.4890289 0.06163427
0.65816252 0.70029218 0.11991587
0.82189724 0.11555675 0.17203562
0.01265907 0.49584649 0.1079051
0.40455744 0.67389085 0.10956123
0.08637032 0.95425564 0.15854308
0.61268295 0.96973735 0.12975703
0.93225492 0.59397389 0.24248267
0.15775324 0.95373742 0.00711397
0.70942626 0.94056182 0.31213279
0.73420805 0.14512603 0.2956101
0.89140894 0.28856282 0.01755163
0.93728603 0.10748252 0.03464484
0.27577281 0.49379597 0.28066832
0.51178223 0.49061864 0.01436716
0.14743395 0.60051295 0.30248989
0.27271861 0.77266275 0.09095338
0.48009716 0.85687915 0.2377411
0.05194277 0.8062573 0.31067996
0.0032471 0.72988569 0.05026724
0.63849047 0.22219408 0.08880793
0.09474958 0.67121275 0.10583606
0.24790361 0.81806201 0.21685271
0.9567295 0.32330108 0.14908894
0.28145924 0.50422505 0.02850291
0.57304887 0.93876497 0.20697106
0.09906388 0.80293191 0.1935928
