POSCAR file written by OVITO Basic 3.5.4
1
17.620497 0.0 0.0
0.0 17.620497 0.0
0.0 0.0 42.27
W Nb Hf Zr 
50 50 50 50 
Direct
0.18335583 -0.01044493 0.09098329
0.30261885 0.18056948 0.09276745
0.46836756 0.95344315 0.07631304
0.29604413 0.20214044 0.21737933
0.34996767 0.02983672 0.09038094
0.32536883 0.33088693 0.24302672
0.78979489 0.08499486 0.26624139
0.47840273 0.70205879 0.05968615
0.8620734 0.4369131 0.23667471
0.51449071 1.02335635 0.23914305
0.1689244 0.66164842 0.2214438
0.85591762 0.13652335 0.21090848
0.85818885 0.7229348 0.2754403
0.54043317 0.39891978 0.22795203
1.00711344 0.61983762 0.03909187
0.59623749 0.09706351 0.12764471
0.09219503 0.72818946 0.05389727
0.56436378 0.04942985 0.18374762
0.30278514 0.1010137 0.15964952
0.98927961 0.65154776 0.10022404
0.70167321 0.33986633 0.12738432
0.89875889 0.60457973 0.22617215
0.23303887 0.92971426 0.03103178
0.07597011 0.11018651 0.33482263
0.38737308 0.8479122 0.27089388
0.7936928 0.23789206 0.04388924
0.11595805 0.814041 0.17632862
0.9496084 0.35963955 0.19923588
1.03692138 0.7079569 -0.00840599
-0.05878628 0.10639219 0.27356888
0.8463573 0.69268203 0.0616429
0.95800079 0.02446443 0.16740287
0.53748503 0.83998416 0.09319411
0.44145993 0.38372244 0.01968488
0.07499162 0.66771346 0.15446637
0.08619116 0.53383413 0.06969537
0.48369007 0.13900916 -0.00389675
1.03619055 0.14805673 0.03703375
0.40289172 0.470062 0.2352194
0.23218248 0.23319886 0.16056671
0.46290928 0.59905766 0.2705842
0.01584922 0.04803624 0.21911853
0.97748643 0.28838148 0.03553386
0.11460069 0.9479766 0.17400339
0.17503646 1.0301155 0.21937285
0.54863544 0.72002448 0.13229403
1.04714256 0.98524608 0.05607724
0.787914 0.23023892 0.11636035
0.7228724 0.69223298 0.29520051
0.88418327 0.09278111 0.04736093
0.69677864 0.82052346 0.12298011
0.87258405 0.80121356 0.10772564
0.3416372 0.31678264 0.12614868
0.86796492 0.25190004 0.25663364
0.01453078 0.21463594 0.24015339
0.86870711 0.77605257 0.2250341
0.31619976 0.89518379 0.1943522
0.92307944 0.68446779 0.16677015
0.10232925 0.40639313 0.29946654
0.42908125 0.34754432 0.18740066
0.66492197 0.4578795 0.16530639
0.6636033 0.1723257 0.01224487
0.1077233 0.02316914 0.00216567
0.34814334 0.53887865 0.28703799
0.77285037 0.53734063 0.26142383
0.36723176 0.7215012 0.01739759
0.07358037 0.42248312 0.18123158
0.39220135 0.14935837 0.04211885
0.38970761 0.56535077 0.02300675
0.16296587 0.31132254 0.13256015
0.15583903 0.44780048 0.11612965
0.42120606 0.51194379 0.07780605
0.23062836 0.81011905 0.28948698
0.03658345 0.01942967 0.12287134
0.77247475 0.74704346 0.17107785
0.75185876 0.35924168 0.22892397
0.89886023 0.95680378 0.08366052
0.41836675 0.69062602 0.12025126
0.66393349 -0.02086308 0.2392964
0.95281432 0.98743125 0.00900805
0.59758038 0.53382694 0.04276546
0.54092339 0.25646956 0.02017144
0.6359739 0.95870461 0.11565282
0.18982764 0.63986336 0.28494238
0.60623892 0.86892475 0.2588291
0.60486555 0.75680643 0.18319155
0.97849063 0.18172187 0.17815935
0.590472 0.45380093 -0.00220157
0.83338869 0.1892216 0.31972022
0.87030244 -0.02245789 0.21040771
0.83425567 0.63218512 0.12478139
0.26182061 0.06695567 0.04557051
0.16431433 0.62985234 0.09954362
0.60751978 0.5705076 0.28503635
0.61490601 0.83052608 0.32557515
-0.0085545 0.37192334 0.26571172
0.7274521 0.84948902 0.20651028
0.91698137 0.86033596 0.16482474
0.47932616 0.84651772 0.31586421
0.42605645 0.19044182 0.2425056
0.15869984 0.82458689 0.23606983
0.28018142 0.95167684 0.26692131
0.88661423 0.20669517 -0.00497342
0.71734585 1.08976341 0.07473878
0.25465532 0.93039989 0.14798928
0.17456364 0.61524381 0.02998053
0.12973546 0.17137172 0.0907289
0.15349959 0.55419711 0.17183368
0.08402924 0.37323085 0.06420318
0.21495178 0.50818565 0.24763512
0.79653156 -0.0609495 0.13890784
1.00312622 0.36391205 0.12696175
0.3839455 -0.00304134 0.02254734
0.10673446 0.12042663 0.15965044
0.35946204 0.04367131 0.21962198
0.22569264 0.97880795 -0.02932487
0.460989 0.45200218 0.29428746
0.55215071 0.55854894 0.10709401
0.22119939 0.76743304 0.01740481
0.45140188 0.62257076 0.20296744
1.02195686 0.46458422 0.02055091
0.45169881 0.17903777 0.11165669
0.46738325 0.17981909 0.18367381
0.54354646 0.90257727 0.19589338
0.93394823 0.53607467 0.28949694
0.83099853 0.41912572 0.15052036
0.52394679 0.722718 0.24833885
0.31056646 0.5935033 0.195286
0.73017397 0.68209895 0.2326856
0.11835163 -0.01844518 0.28073745
0.54241568 0.35367342 0.12682875
0.70600571 0.0468727 0.18000401
0.12626586 -0.07697957 0.34058639
1.11937415 0.23419945 3.8235e-04
0.8013079 0.53217156 0.19000408
0.47011213 0.29463544 0.29664296
0.7581144 0.84263795 0.28670685
0.61848675 0.06917001 -0.02289335
0.35112908 0.71185361 0.30420444
0.29416958 0.52173732 0.12854292
0.69556418 0.37503406 0.03223909
0.58591127 1.18326847 0.24885458
0.7311118 0.46939898 0.09487118
0.17511462 0.77139177 0.3498162
0.73730165 0.55339405 0.31689114
0.59967313 -0.00649886 0.3039633
0.11739191 0.28153803 0.20898591
0.20985379 0.82633369 0.09254602
0.54790937 0.40622252 0.06944983
0.24768362 0.37856193 0.19007465
0.24484221 0.73342966 0.16733492
1.02106279 0.73810998 0.24167022
0.25429441 0.28552747 0.06554701
0.30636488 0.24915249 0.2923003
0.0560584 0.80870292 0.30988553
0.79235919 1.01533909 0.02167216
0.26311515 0.47565899 0.070522
0.65349998 0.19976991 0.16713656
0.55079872 0.68404098 0.31316828
0.42274712 0.77891111 0.16965573
0.5419007 0.64879636 0.01082152
0.30555157 0.65526549 0.07600046
0.81234139 0.38634606 0.29887104
0.332909 0.73952864 0.23805542
0.62773685 0.40980537 0.27575262
0.41640465 0.32336161 0.07017128
-0.0565575 0.06928454 0.33580201
0.35472536 0.86099109 0.06315056
0.80995874 0.25931253 0.17584331
0.52485907 0.0677764 0.05086047
0.30164866 0.40428163 0.30737029
0.42379422 1.05215591 0.28937872
0.16038421 0.15256636 0.2585454
0.47011729 0.47736599 0.15606162
0.68958145 0.6725116 0.08933469
0.63702723 0.23831216 0.07737447
0.92332015 0.48256962 0.09214554
0.78263575 0.847677 0.05359152
-0.01538541 0.53376898 0.1507636
0.45223296 0.99965574 0.13889564
0.01794808 -0.11159108 0.21394002
0.03602694 0.82696452 0.10614547
0.64532118 0.95932481 0.05206059
0.16682563 0.3328229 0.26800482
0.97080101 0.1617843 0.10024928
0.10967932 0.87782232 0.00507829
0.85403882 0.41709996 0.01991999
0.96171096 0.80695724 0.04353978
0.83371959 0.09528761 0.13720803
0.25753038 0.10330455 0.31116912
0.5152828 0.85798571 0.02464933
0.05767886 0.53328924 0.23105531
0.78702464 0.53449104 0.03359385
0.84151269 0.33359509 0.08226668
0.61457548 0.56841779 0.21610966
0.27807028 0.89645331 0.33151188
0.00400802 0.22342413 0.31562242
0.72194183 0.21598202 0.27578221
0.67140071 0.61761454 0.16134577
0.89925077 -0.03909024 0.28476903
